%%MatrixMarket matrix coordinate integer general
%
261 1044 3132
1 32 1
1 168 1
1 253 1
1 313 1
1 367 1
1 442 1
1 550 1
1 679 1
1 767 1
1 831 1
1 892 1
1 1042 1
2 33 1
2 140 1
2 254 1
2 314 1
2 368 1
2 443 1
2 551 1
2 680 1
2 768 1
2 803 1
2 893 1
2 1043 1
3 34 1
3 112 1
3 255 1
3 315 1
3 369 1
3 444 1
3 552 1
3 681 1
3 769 1
3 862 1
3 894 1
3 1044 1
4 35 1
4 171 1
4 256 1
4 316 1
4 370 1
4 445 1
4 553 1
4 682 1
4 770 1
4 834 1
4 895 1
4 958 1
5 36 1
5 143 1
5 257 1
5 317 1
5 371 1
5 446 1
5 554 1
5 683 1
5 771 1
5 806 1
5 896 1
5 959 1
6 37 1
6 115 1
6 258 1
6 318 1
6 372 1
6 447 1
6 555 1
6 684 1
6 772 1
6 865 1
6 897 1
6 960 1
7 38 1
7 174 1
7 259 1
7 319 1
7 373 1
7 448 1
7 556 1
7 685 1
7 773 1
7 837 1
7 898 1
7 961 1
8 39 1
8 146 1
8 260 1
8 320 1
8 374 1
8 449 1
8 557 1
8 686 1
8 774 1
8 809 1
8 899 1
8 962 1
9 40 1
9 118 1
9 261 1
9 321 1
9 375 1
9 450 1
9 558 1
9 687 1
9 775 1
9 868 1
9 900 1
9 963 1
10 41 1
10 90 1
10 175 1
10 322 1
10 376 1
10 451 1
10 559 1
10 688 1
10 776 1
10 840 1
10 901 1
10 964 1
11 42 1
11 149 1
11 176 1
11 323 1
11 377 1
11 452 1
11 560 1
11 689 1
11 777 1
11 812 1
11 902 1
11 965 1
12 43 1
12 121 1
12 177 1
12 324 1
12 378 1
12 453 1
12 561 1
12 690 1
12 778 1
12 784 1
12 903 1
12 966 1
13 44 1
13 93 1
13 178 1
13 325 1
13 379 1
13 454 1
13 562 1
13 691 1
13 779 1
13 843 1
13 904 1
13 967 1
14 45 1
14 152 1
14 179 1
14 326 1
14 380 1
14 455 1
14 563 1
14 692 1
14 780 1
14 815 1
14 905 1
14 968 1
15 46 1
15 124 1
15 180 1
15 327 1
15 381 1
15 456 1
15 564 1
15 693 1
15 781 1
15 787 1
15 906 1
15 969 1
16 47 1
16 96 1
16 181 1
16 328 1
16 382 1
16 457 1
16 565 1
16 694 1
16 782 1
16 846 1
16 907 1
16 970 1
17 48 1
17 155 1
17 182 1
17 329 1
17 383 1
17 458 1
17 566 1
17 695 1
17 783 1
17 818 1
17 908 1
17 971 1
18 49 1
18 127 1
18 183 1
18 330 1
18 384 1
18 459 1
18 567 1
18 696 1
18 697 1
18 790 1
18 909 1
18 972 1
19 50 1
19 99 1
19 184 1
19 331 1
19 385 1
19 460 1
19 568 1
19 610 1
19 698 1
19 849 1
19 910 1
19 973 1
20 51 1
20 158 1
20 185 1
20 332 1
20 386 1
20 461 1
20 569 1
20 611 1
20 699 1
20 821 1
20 911 1
20 974 1
21 52 1
21 130 1
21 186 1
21 333 1
21 387 1
21 462 1
21 570 1
21 612 1
21 700 1
21 793 1
21 912 1
21 975 1
22 53 1
22 102 1
22 187 1
22 334 1
22 388 1
22 463 1
22 571 1
22 613 1
22 701 1
22 852 1
22 913 1
22 976 1
23 54 1
23 161 1
23 188 1
23 335 1
23 389 1
23 464 1
23 572 1
23 614 1
23 702 1
23 824 1
23 914 1
23 977 1
24 55 1
24 133 1
24 189 1
24 336 1
24 390 1
24 465 1
24 573 1
24 615 1
24 703 1
24 796 1
24 915 1
24 978 1
25 56 1
25 105 1
25 190 1
25 337 1
25 391 1
25 466 1
25 574 1
25 616 1
25 704 1
25 855 1
25 916 1
25 979 1
26 57 1
26 164 1
26 191 1
26 338 1
26 392 1
26 467 1
26 575 1
26 617 1
26 705 1
26 827 1
26 917 1
26 980 1
27 58 1
27 136 1
27 192 1
27 339 1
27 393 1
27 468 1
27 576 1
27 618 1
27 706 1
27 799 1
27 918 1
27 981 1
28 59 1
28 108 1
28 193 1
28 340 1
28 394 1
28 469 1
28 577 1
28 619 1
28 707 1
28 858 1
28 919 1
28 982 1
29 60 1
29 167 1
29 194 1
29 341 1
29 395 1
29 470 1
29 578 1
29 620 1
29 708 1
29 830 1
29 920 1
29 983 1
30 61 1
30 139 1
30 195 1
30 342 1
30 396 1
30 471 1
30 579 1
30 621 1
30 709 1
30 802 1
30 921 1
30 984 1
31 62 1
31 111 1
31 196 1
31 343 1
31 397 1
31 472 1
31 580 1
31 622 1
31 710 1
31 861 1
31 922 1
31 985 1
32 63 1
32 170 1
32 197 1
32 344 1
32 398 1
32 473 1
32 581 1
32 623 1
32 711 1
32 833 1
32 923 1
32 986 1
33 64 1
33 142 1
33 198 1
33 345 1
33 399 1
33 474 1
33 582 1
33 624 1
33 712 1
33 805 1
33 924 1
33 987 1
34 65 1
34 114 1
34 199 1
34 346 1
34 400 1
34 475 1
34 583 1
34 625 1
34 713 1
34 864 1
34 925 1
34 988 1
35 66 1
35 173 1
35 200 1
35 347 1
35 401 1
35 476 1
35 584 1
35 626 1
35 714 1
35 836 1
35 926 1
35 989 1
36 67 1
36 145 1
36 201 1
36 348 1
36 402 1
36 477 1
36 585 1
36 627 1
36 715 1
36 808 1
36 927 1
36 990 1
37 68 1
37 117 1
37 202 1
37 262 1
37 403 1
37 478 1
37 586 1
37 628 1
37 716 1
37 867 1
37 928 1
37 991 1
38 69 1
38 89 1
38 203 1
38 263 1
38 404 1
38 479 1
38 587 1
38 629 1
38 717 1
38 839 1
38 929 1
38 992 1
39 70 1
39 148 1
39 204 1
39 264 1
39 405 1
39 480 1
39 588 1
39 630 1
39 718 1
39 811 1
39 930 1
39 993 1
40 71 1
40 120 1
40 205 1
40 265 1
40 406 1
40 481 1
40 589 1
40 631 1
40 719 1
40 870 1
40 931 1
40 994 1
41 72 1
41 92 1
41 206 1
41 266 1
41 407 1
41 482 1
41 590 1
41 632 1
41 720 1
41 842 1
41 932 1
41 995 1
42 73 1
42 151 1
42 207 1
42 267 1
42 408 1
42 483 1
42 591 1
42 633 1
42 721 1
42 814 1
42 933 1
42 996 1
43 74 1
43 123 1
43 208 1
43 268 1
43 409 1
43 484 1
43 592 1
43 634 1
43 722 1
43 786 1
43 934 1
43 997 1
44 75 1
44 95 1
44 209 1
44 269 1
44 410 1
44 485 1
44 593 1
44 635 1
44 723 1
44 845 1
44 935 1
44 998 1
45 76 1
45 154 1
45 210 1
45 270 1
45 411 1
45 486 1
45 594 1
45 636 1
45 724 1
45 817 1
45 936 1
45 999 1
46 77 1
46 126 1
46 211 1
46 271 1
46 412 1
46 487 1
46 595 1
46 637 1
46 725 1
46 789 1
46 937 1
46 1000 1
47 78 1
47 98 1
47 212 1
47 272 1
47 413 1
47 488 1
47 596 1
47 638 1
47 726 1
47 848 1
47 938 1
47 1001 1
48 79 1
48 157 1
48 213 1
48 273 1
48 414 1
48 489 1
48 597 1
48 639 1
48 727 1
48 820 1
48 939 1
48 1002 1
49 80 1
49 129 1
49 214 1
49 274 1
49 415 1
49 490 1
49 598 1
49 640 1
49 728 1
49 792 1
49 940 1
49 1003 1
50 81 1
50 101 1
50 215 1
50 275 1
50 416 1
50 491 1
50 599 1
50 641 1
50 729 1
50 851 1
50 941 1
50 1004 1
51 82 1
51 160 1
51 216 1
51 276 1
51 417 1
51 492 1
51 600 1
51 642 1
51 730 1
51 823 1
51 942 1
51 1005 1
52 83 1
52 132 1
52 217 1
52 277 1
52 418 1
52 493 1
52 601 1
52 643 1
52 731 1
52 795 1
52 943 1
52 1006 1
53 84 1
53 104 1
53 218 1
53 278 1
53 419 1
53 494 1
53 602 1
53 644 1
53 732 1
53 854 1
53 944 1
53 1007 1
54 85 1
54 163 1
54 219 1
54 279 1
54 420 1
54 495 1
54 603 1
54 645 1
54 733 1
54 826 1
54 945 1
54 1008 1
55 86 1
55 135 1
55 220 1
55 280 1
55 421 1
55 496 1
55 604 1
55 646 1
55 734 1
55 798 1
55 946 1
55 1009 1
56 87 1
56 107 1
56 221 1
56 281 1
56 422 1
56 497 1
56 605 1
56 647 1
56 735 1
56 857 1
56 947 1
56 1010 1
57 1 1
57 166 1
57 222 1
57 282 1
57 423 1
57 498 1
57 606 1
57 648 1
57 736 1
57 829 1
57 948 1
57 1011 1
58 2 1
58 138 1
58 223 1
58 283 1
58 424 1
58 499 1
58 607 1
58 649 1
58 737 1
58 801 1
58 949 1
58 1012 1
59 3 1
59 110 1
59 224 1
59 284 1
59 425 1
59 500 1
59 608 1
59 650 1
59 738 1
59 860 1
59 950 1
59 1013 1
60 4 1
60 169 1
60 225 1
60 285 1
60 426 1
60 501 1
60 609 1
60 651 1
60 739 1
60 832 1
60 951 1
60 1014 1
61 5 1
61 141 1
61 226 1
61 286 1
61 427 1
61 502 1
61 523 1
61 652 1
61 740 1
61 804 1
61 952 1
61 1015 1
62 6 1
62 113 1
62 227 1
62 287 1
62 428 1
62 503 1
62 524 1
62 653 1
62 741 1
62 863 1
62 953 1
62 1016 1
63 7 1
63 172 1
63 228 1
63 288 1
63 429 1
63 504 1
63 525 1
63 654 1
63 742 1
63 835 1
63 954 1
63 1017 1
64 8 1
64 144 1
64 229 1
64 289 1
64 430 1
64 505 1
64 526 1
64 655 1
64 743 1
64 807 1
64 955 1
64 1018 1
65 9 1
65 116 1
65 230 1
65 290 1
65 431 1
65 506 1
65 527 1
65 656 1
65 744 1
65 866 1
65 956 1
65 1019 1
66 10 1
66 88 1
66 231 1
66 291 1
66 432 1
66 507 1
66 528 1
66 657 1
66 745 1
66 838 1
66 957 1
66 1020 1
67 11 1
67 147 1
67 232 1
67 292 1
67 433 1
67 508 1
67 529 1
67 658 1
67 746 1
67 810 1
67 871 1
67 1021 1
68 12 1
68 119 1
68 233 1
68 293 1
68 434 1
68 509 1
68 530 1
68 659 1
68 747 1
68 869 1
68 872 1
68 1022 1
69 13 1
69 91 1
69 234 1
69 294 1
69 435 1
69 510 1
69 531 1
69 660 1
69 748 1
69 841 1
69 873 1
69 1023 1
70 14 1
70 150 1
70 235 1
70 295 1
70 349 1
70 511 1
70 532 1
70 661 1
70 749 1
70 813 1
70 874 1
70 1024 1
71 15 1
71 122 1
71 236 1
71 296 1
71 350 1
71 512 1
71 533 1
71 662 1
71 750 1
71 785 1
71 875 1
71 1025 1
72 16 1
72 94 1
72 237 1
72 297 1
72 351 1
72 513 1
72 534 1
72 663 1
72 751 1
72 844 1
72 876 1
72 1026 1
73 17 1
73 153 1
73 238 1
73 298 1
73 352 1
73 514 1
73 535 1
73 664 1
73 752 1
73 816 1
73 877 1
73 1027 1
74 18 1
74 125 1
74 239 1
74 299 1
74 353 1
74 515 1
74 536 1
74 665 1
74 753 1
74 788 1
74 878 1
74 1028 1
75 19 1
75 97 1
75 240 1
75 300 1
75 354 1
75 516 1
75 537 1
75 666 1
75 754 1
75 847 1
75 879 1
75 1029 1
76 20 1
76 156 1
76 241 1
76 301 1
76 355 1
76 517 1
76 538 1
76 667 1
76 755 1
76 819 1
76 880 1
76 1030 1
77 21 1
77 128 1
77 242 1
77 302 1
77 356 1
77 518 1
77 539 1
77 668 1
77 756 1
77 791 1
77 881 1
77 1031 1
78 22 1
78 100 1
78 243 1
78 303 1
78 357 1
78 519 1
78 540 1
78 669 1
78 757 1
78 850 1
78 882 1
78 1032 1
79 23 1
79 159 1
79 244 1
79 304 1
79 358 1
79 520 1
79 541 1
79 670 1
79 758 1
79 822 1
79 883 1
79 1033 1
80 24 1
80 131 1
80 245 1
80 305 1
80 359 1
80 521 1
80 542 1
80 671 1
80 759 1
80 794 1
80 884 1
80 1034 1
81 25 1
81 103 1
81 246 1
81 306 1
81 360 1
81 522 1
81 543 1
81 672 1
81 760 1
81 853 1
81 885 1
81 1035 1
82 26 1
82 162 1
82 247 1
82 307 1
82 361 1
82 436 1
82 544 1
82 673 1
82 761 1
82 825 1
82 886 1
82 1036 1
83 27 1
83 134 1
83 248 1
83 308 1
83 362 1
83 437 1
83 545 1
83 674 1
83 762 1
83 797 1
83 887 1
83 1037 1
84 28 1
84 106 1
84 249 1
84 309 1
84 363 1
84 438 1
84 546 1
84 675 1
84 763 1
84 856 1
84 888 1
84 1038 1
85 29 1
85 165 1
85 250 1
85 310 1
85 364 1
85 439 1
85 547 1
85 676 1
85 764 1
85 828 1
85 889 1
85 1039 1
86 30 1
86 137 1
86 251 1
86 311 1
86 365 1
86 440 1
86 548 1
86 677 1
86 765 1
86 800 1
86 890 1
86 1040 1
87 31 1
87 109 1
87 252 1
87 312 1
87 366 1
87 441 1
87 549 1
87 678 1
87 766 1
87 859 1
87 891 1
87 1041 1
88 7 1
88 119 1
88 255 1
88 340 1
88 400 1
88 454 1
88 607 1
88 637 1
88 766 1
88 854 1
88 918 1
88 979 1
89 8 1
89 120 1
89 227 1
89 341 1
89 401 1
89 455 1
89 608 1
89 638 1
89 767 1
89 855 1
89 890 1
89 980 1
90 9 1
90 121 1
90 199 1
90 342 1
90 402 1
90 456 1
90 609 1
90 639 1
90 768 1
90 856 1
90 949 1
90 981 1
91 10 1
91 122 1
91 258 1
91 343 1
91 403 1
91 457 1
91 523 1
91 640 1
91 769 1
91 857 1
91 921 1
91 982 1
92 11 1
92 123 1
92 230 1
92 344 1
92 404 1
92 458 1
92 524 1
92 641 1
92 770 1
92 858 1
92 893 1
92 983 1
93 12 1
93 124 1
93 202 1
93 345 1
93 405 1
93 459 1
93 525 1
93 642 1
93 771 1
93 859 1
93 952 1
93 984 1
94 13 1
94 125 1
94 261 1
94 346 1
94 406 1
94 460 1
94 526 1
94 643 1
94 772 1
94 860 1
94 924 1
94 985 1
95 14 1
95 126 1
95 233 1
95 347 1
95 407 1
95 461 1
95 527 1
95 644 1
95 773 1
95 861 1
95 896 1
95 986 1
96 15 1
96 127 1
96 205 1
96 348 1
96 408 1
96 462 1
96 528 1
96 645 1
96 774 1
96 862 1
96 955 1
96 987 1
97 16 1
97 128 1
97 177 1
97 262 1
97 409 1
97 463 1
97 529 1
97 646 1
97 775 1
97 863 1
97 927 1
97 988 1
98 17 1
98 129 1
98 236 1
98 263 1
98 410 1
98 464 1
98 530 1
98 647 1
98 776 1
98 864 1
98 899 1
98 989 1
99 18 1
99 130 1
99 208 1
99 264 1
99 411 1
99 465 1
99 531 1
99 648 1
99 777 1
99 865 1
99 871 1
99 990 1
100 19 1
100 131 1
100 180 1
100 265 1
100 412 1
100 466 1
100 532 1
100 649 1
100 778 1
100 866 1
100 930 1
100 991 1
101 20 1
101 132 1
101 239 1
101 266 1
101 413 1
101 467 1
101 533 1
101 650 1
101 779 1
101 867 1
101 902 1
101 992 1
102 21 1
102 133 1
102 211 1
102 267 1
102 414 1
102 468 1
102 534 1
102 651 1
102 780 1
102 868 1
102 874 1
102 993 1
103 22 1
103 134 1
103 183 1
103 268 1
103 415 1
103 469 1
103 535 1
103 652 1
103 781 1
103 869 1
103 933 1
103 994 1
104 23 1
104 135 1
104 242 1
104 269 1
104 416 1
104 470 1
104 536 1
104 653 1
104 782 1
104 870 1
104 905 1
104 995 1
105 24 1
105 136 1
105 214 1
105 270 1
105 417 1
105 471 1
105 537 1
105 654 1
105 783 1
105 784 1
105 877 1
105 996 1
106 25 1
106 137 1
106 186 1
106 271 1
106 418 1
106 472 1
106 538 1
106 655 1
106 697 1
106 785 1
106 936 1
106 997 1
107 26 1
107 138 1
107 245 1
107 272 1
107 419 1
107 473 1
107 539 1
107 656 1
107 698 1
107 786 1
107 908 1
107 998 1
108 27 1
108 139 1
108 217 1
108 273 1
108 420 1
108 474 1
108 540 1
108 657 1
108 699 1
108 787 1
108 880 1
108 999 1
109 28 1
109 140 1
109 189 1
109 274 1
109 421 1
109 475 1
109 541 1
109 658 1
109 700 1
109 788 1
109 939 1
109 1000 1
110 29 1
110 141 1
110 248 1
110 275 1
110 422 1
110 476 1
110 542 1
110 659 1
110 701 1
110 789 1
110 911 1
110 1001 1
111 30 1
111 142 1
111 220 1
111 276 1
111 423 1
111 477 1
111 543 1
111 660 1
111 702 1
111 790 1
111 883 1
111 1002 1
112 31 1
112 143 1
112 192 1
112 277 1
112 424 1
112 478 1
112 544 1
112 661 1
112 703 1
112 791 1
112 942 1
112 1003 1
113 32 1
113 144 1
113 251 1
113 278 1
113 425 1
113 479 1
113 545 1
113 662 1
113 704 1
113 792 1
113 914 1
113 1004 1
114 33 1
114 145 1
114 223 1
114 279 1
114 426 1
114 480 1
114 546 1
114 663 1
114 705 1
114 793 1
114 886 1
114 1005 1
115 34 1
115 146 1
115 195 1
115 280 1
115 427 1
115 481 1
115 547 1
115 664 1
115 706 1
115 794 1
115 945 1
115 1006 1
116 35 1
116 147 1
116 254 1
116 281 1
116 428 1
116 482 1
116 548 1
116 665 1
116 707 1
116 795 1
116 917 1
116 1007 1
117 36 1
117 148 1
117 226 1
117 282 1
117 429 1
117 483 1
117 549 1
117 666 1
117 708 1
117 796 1
117 889 1
117 1008 1
118 37 1
118 149 1
118 198 1
118 283 1
118 430 1
118 484 1
118 550 1
118 667 1
118 709 1
118 797 1
118 948 1
118 1009 1
119 38 1
119 150 1
119 257 1
119 284 1
119 431 1
119 485 1
119 551 1
119 668 1
119 710 1
119 798 1
119 920 1
119 1010 1
120 39 1
120 151 1
120 229 1
120 285 1
120 432 1
120 486 1
120 552 1
120 669 1
120 711 1
120 799 1
120 892 1
120 1011 1
121 40 1
121 152 1
121 201 1
121 286 1
121 433 1
121 487 1
121 553 1
121 670 1
121 712 1
121 800 1
121 951 1
121 1012 1
122 41 1
122 153 1
122 260 1
122 287 1
122 434 1
122 488 1
122 554 1
122 671 1
122 713 1
122 801 1
122 923 1
122 1013 1
123 42 1
123 154 1
123 232 1
123 288 1
123 435 1
123 489 1
123 555 1
123 672 1
123 714 1
123 802 1
123 895 1
123 1014 1
124 43 1
124 155 1
124 204 1
124 289 1
124 349 1
124 490 1
124 556 1
124 673 1
124 715 1
124 803 1
124 954 1
124 1015 1
125 44 1
125 156 1
125 176 1
125 290 1
125 350 1
125 491 1
125 557 1
125 674 1
125 716 1
125 804 1
125 926 1
125 1016 1
126 45 1
126 157 1
126 235 1
126 291 1
126 351 1
126 492 1
126 558 1
126 675 1
126 717 1
126 805 1
126 898 1
126 1017 1
127 46 1
127 158 1
127 207 1
127 292 1
127 352 1
127 493 1
127 559 1
127 676 1
127 718 1
127 806 1
127 957 1
127 1018 1
128 47 1
128 159 1
128 179 1
128 293 1
128 353 1
128 494 1
128 560 1
128 677 1
128 719 1
128 807 1
128 929 1
128 1019 1
129 48 1
129 160 1
129 238 1
129 294 1
129 354 1
129 495 1
129 561 1
129 678 1
129 720 1
129 808 1
129 901 1
129 1020 1
130 49 1
130 161 1
130 210 1
130 295 1
130 355 1
130 496 1
130 562 1
130 679 1
130 721 1
130 809 1
130 873 1
130 1021 1
131 50 1
131 162 1
131 182 1
131 296 1
131 356 1
131 497 1
131 563 1
131 680 1
131 722 1
131 810 1
131 932 1
131 1022 1
132 51 1
132 163 1
132 241 1
132 297 1
132 357 1
132 498 1
132 564 1
132 681 1
132 723 1
132 811 1
132 904 1
132 1023 1
133 52 1
133 164 1
133 213 1
133 298 1
133 358 1
133 499 1
133 565 1
133 682 1
133 724 1
133 812 1
133 876 1
133 1024 1
134 53 1
134 165 1
134 185 1
134 299 1
134 359 1
134 500 1
134 566 1
134 683 1
134 725 1
134 813 1
134 935 1
134 1025 1
135 54 1
135 166 1
135 244 1
135 300 1
135 360 1
135 501 1
135 567 1
135 684 1
135 726 1
135 814 1
135 907 1
135 1026 1
136 55 1
136 167 1
136 216 1
136 301 1
136 361 1
136 502 1
136 568 1
136 685 1
136 727 1
136 815 1
136 879 1
136 1027 1
137 56 1
137 168 1
137 188 1
137 302 1
137 362 1
137 503 1
137 569 1
137 686 1
137 728 1
137 816 1
137 938 1
137 1028 1
138 57 1
138 169 1
138 247 1
138 303 1
138 363 1
138 504 1
138 570 1
138 687 1
138 729 1
138 817 1
138 910 1
138 1029 1
139 58 1
139 170 1
139 219 1
139 304 1
139 364 1
139 505 1
139 571 1
139 688 1
139 730 1
139 818 1
139 882 1
139 1030 1
140 59 1
140 171 1
140 191 1
140 305 1
140 365 1
140 506 1
140 572 1
140 689 1
140 731 1
140 819 1
140 941 1
140 1031 1
141 60 1
141 172 1
141 250 1
141 306 1
141 366 1
141 507 1
141 573 1
141 690 1
141 732 1
141 820 1
141 913 1
141 1032 1
142 61 1
142 173 1
142 222 1
142 307 1
142 367 1
142 508 1
142 574 1
142 691 1
142 733 1
142 821 1
142 885 1
142 1033 1
143 62 1
143 174 1
143 194 1
143 308 1
143 368 1
143 509 1
143 575 1
143 692 1
143 734 1
143 822 1
143 944 1
143 1034 1
144 63 1
144 88 1
144 253 1
144 309 1
144 369 1
144 510 1
144 576 1
144 693 1
144 735 1
144 823 1
144 916 1
144 1035 1
145 64 1
145 89 1
145 225 1
145 310 1
145 370 1
145 511 1
145 577 1
145 694 1
145 736 1
145 824 1
145 888 1
145 1036 1
146 65 1
146 90 1
146 197 1
146 311 1
146 371 1
146 512 1
146 578 1
146 695 1
146 737 1
146 825 1
146 947 1
146 1037 1
147 66 1
147 91 1
147 256 1
147 312 1
147 372 1
147 513 1
147 579 1
147 696 1
147 738 1
147 826 1
147 919 1
147 1038 1
148 67 1
148 92 1
148 228 1
148 313 1
148 373 1
148 514 1
148 580 1
148 610 1
148 739 1
148 827 1
148 891 1
148 1039 1
149 68 1
149 93 1
149 200 1
149 314 1
149 374 1
149 515 1
149 581 1
149 611 1
149 740 1
149 828 1
149 950 1
149 1040 1
150 69 1
150 94 1
150 259 1
150 315 1
150 375 1
150 516 1
150 582 1
150 612 1
150 741 1
150 829 1
150 922 1
150 1041 1
151 70 1
151 95 1
151 231 1
151 316 1
151 376 1
151 517 1
151 583 1
151 613 1
151 742 1
151 830 1
151 894 1
151 1042 1
152 71 1
152 96 1
152 203 1
152 317 1
152 377 1
152 518 1
152 584 1
152 614 1
152 743 1
152 831 1
152 953 1
152 1043 1
153 72 1
153 97 1
153 175 1
153 318 1
153 378 1
153 519 1
153 585 1
153 615 1
153 744 1
153 832 1
153 925 1
153 1044 1
154 73 1
154 98 1
154 234 1
154 319 1
154 379 1
154 520 1
154 586 1
154 616 1
154 745 1
154 833 1
154 897 1
154 958 1
155 74 1
155 99 1
155 206 1
155 320 1
155 380 1
155 521 1
155 587 1
155 617 1
155 746 1
155 834 1
155 956 1
155 959 1
156 75 1
156 100 1
156 178 1
156 321 1
156 381 1
156 522 1
156 588 1
156 618 1
156 747 1
156 835 1
156 928 1
156 960 1
157 76 1
157 101 1
157 237 1
157 322 1
157 382 1
157 436 1
157 589 1
157 619 1
157 748 1
157 836 1
157 900 1
157 961 1
158 77 1
158 102 1
158 209 1
158 323 1
158 383 1
158 437 1
158 590 1
158 620 1
158 749 1
158 837 1
158 872 1
158 962 1
159 78 1
159 103 1
159 181 1
159 324 1
159 384 1
159 438 1
159 591 1
159 621 1
159 750 1
159 838 1
159 931 1
159 963 1
160 79 1
160 104 1
160 240 1
160 325 1
160 385 1
160 439 1
160 592 1
160 622 1
160 751 1
160 839 1
160 903 1
160 964 1
161 80 1
161 105 1
161 212 1
161 326 1
161 386 1
161 440 1
161 593 1
161 623 1
161 752 1
161 840 1
161 875 1
161 965 1
162 81 1
162 106 1
162 184 1
162 327 1
162 387 1
162 441 1
162 594 1
162 624 1
162 753 1
162 841 1
162 934 1
162 966 1
163 82 1
163 107 1
163 243 1
163 328 1
163 388 1
163 442 1
163 595 1
163 625 1
163 754 1
163 842 1
163 906 1
163 967 1
164 83 1
164 108 1
164 215 1
164 329 1
164 389 1
164 443 1
164 596 1
164 626 1
164 755 1
164 843 1
164 878 1
164 968 1
165 84 1
165 109 1
165 187 1
165 330 1
165 390 1
165 444 1
165 597 1
165 627 1
165 756 1
165 844 1
165 937 1
165 969 1
166 85 1
166 110 1
166 246 1
166 331 1
166 391 1
166 445 1
166 598 1
166 628 1
166 757 1
166 845 1
166 909 1
166 970 1
167 86 1
167 111 1
167 218 1
167 332 1
167 392 1
167 446 1
167 599 1
167 629 1
167 758 1
167 846 1
167 881 1
167 971 1
168 87 1
168 112 1
168 190 1
168 333 1
168 393 1
168 447 1
168 600 1
168 630 1
168 759 1
168 847 1
168 940 1
168 972 1
169 1 1
169 113 1
169 249 1
169 334 1
169 394 1
169 448 1
169 601 1
169 631 1
169 760 1
169 848 1
169 912 1
169 973 1
170 2 1
170 114 1
170 221 1
170 335 1
170 395 1
170 449 1
170 602 1
170 632 1
170 761 1
170 849 1
170 884 1
170 974 1
171 3 1
171 115 1
171 193 1
171 336 1
171 396 1
171 450 1
171 603 1
171 633 1
171 762 1
171 850 1
171 943 1
171 975 1
172 4 1
172 116 1
172 252 1
172 337 1
172 397 1
172 451 1
172 604 1
172 634 1
172 763 1
172 851 1
172 915 1
172 976 1
173 5 1
173 117 1
173 224 1
173 338 1
173 398 1
173 452 1
173 605 1
173 635 1
173 764 1
173 852 1
173 887 1
173 977 1
174 6 1
174 118 1
174 196 1
174 339 1
174 399 1
174 453 1
174 606 1
174 636 1
174 765 1
174 853 1
174 946 1
174 978 1
175 19 1
175 94 1
175 206 1
175 342 1
175 427 1
175 487 1
175 544 1
175 694 1
175 724 1
175 853 1
175 941 1
175 1005 1
176 20 1
176 95 1
176 207 1
176 314 1
176 428 1
176 488 1
176 545 1
176 695 1
176 725 1
176 854 1
176 942 1
176 977 1
177 21 1
177 96 1
177 208 1
177 286 1
177 429 1
177 489 1
177 546 1
177 696 1
177 726 1
177 855 1
177 943 1
177 1036 1
178 22 1
178 97 1
178 209 1
178 345 1
178 430 1
178 490 1
178 547 1
178 610 1
178 727 1
178 856 1
178 944 1
178 1008 1
179 23 1
179 98 1
179 210 1
179 317 1
179 431 1
179 491 1
179 548 1
179 611 1
179 728 1
179 857 1
179 945 1
179 980 1
180 24 1
180 99 1
180 211 1
180 289 1
180 432 1
180 492 1
180 549 1
180 612 1
180 729 1
180 858 1
180 946 1
180 1039 1
181 25 1
181 100 1
181 212 1
181 348 1
181 433 1
181 493 1
181 550 1
181 613 1
181 730 1
181 859 1
181 947 1
181 1011 1
182 26 1
182 101 1
182 213 1
182 320 1
182 434 1
182 494 1
182 551 1
182 614 1
182 731 1
182 860 1
182 948 1
182 983 1
183 27 1
183 102 1
183 214 1
183 292 1
183 435 1
183 495 1
183 552 1
183 615 1
183 732 1
183 861 1
183 949 1
183 1042 1
184 28 1
184 103 1
184 215 1
184 264 1
184 349 1
184 496 1
184 553 1
184 616 1
184 733 1
184 862 1
184 950 1
184 1014 1
185 29 1
185 104 1
185 216 1
185 323 1
185 350 1
185 497 1
185 554 1
185 617 1
185 734 1
185 863 1
185 951 1
185 986 1
186 30 1
186 105 1
186 217 1
186 295 1
186 351 1
186 498 1
186 555 1
186 618 1
186 735 1
186 864 1
186 952 1
186 958 1
187 31 1
187 106 1
187 218 1
187 267 1
187 352 1
187 499 1
187 556 1
187 619 1
187 736 1
187 865 1
187 953 1
187 1017 1
188 32 1
188 107 1
188 219 1
188 326 1
188 353 1
188 500 1
188 557 1
188 620 1
188 737 1
188 866 1
188 954 1
188 989 1
189 33 1
189 108 1
189 220 1
189 298 1
189 354 1
189 501 1
189 558 1
189 621 1
189 738 1
189 867 1
189 955 1
189 961 1
190 34 1
190 109 1
190 221 1
190 270 1
190 355 1
190 502 1
190 559 1
190 622 1
190 739 1
190 868 1
190 956 1
190 1020 1
191 35 1
191 110 1
191 222 1
191 329 1
191 356 1
191 503 1
191 560 1
191 623 1
191 740 1
191 869 1
191 957 1
191 992 1
192 36 1
192 111 1
192 223 1
192 301 1
192 357 1
192 504 1
192 561 1
192 624 1
192 741 1
192 870 1
192 871 1
192 964 1
193 37 1
193 112 1
193 224 1
193 273 1
193 358 1
193 505 1
193 562 1
193 625 1
193 742 1
193 784 1
193 872 1
193 1023 1
194 38 1
194 113 1
194 225 1
194 332 1
194 359 1
194 506 1
194 563 1
194 626 1
194 743 1
194 785 1
194 873 1
194 995 1
195 39 1
195 114 1
195 226 1
195 304 1
195 360 1
195 507 1
195 564 1
195 627 1
195 744 1
195 786 1
195 874 1
195 967 1
196 40 1
196 115 1
196 227 1
196 276 1
196 361 1
196 508 1
196 565 1
196 628 1
196 745 1
196 787 1
196 875 1
196 1026 1
197 41 1
197 116 1
197 228 1
197 335 1
197 362 1
197 509 1
197 566 1
197 629 1
197 746 1
197 788 1
197 876 1
197 998 1
198 42 1
198 117 1
198 229 1
198 307 1
198 363 1
198 510 1
198 567 1
198 630 1
198 747 1
198 789 1
198 877 1
198 970 1
199 43 1
199 118 1
199 230 1
199 279 1
199 364 1
199 511 1
199 568 1
199 631 1
199 748 1
199 790 1
199 878 1
199 1029 1
200 44 1
200 119 1
200 231 1
200 338 1
200 365 1
200 512 1
200 569 1
200 632 1
200 749 1
200 791 1
200 879 1
200 1001 1
201 45 1
201 120 1
201 232 1
201 310 1
201 366 1
201 513 1
201 570 1
201 633 1
201 750 1
201 792 1
201 880 1
201 973 1
202 46 1
202 121 1
202 233 1
202 282 1
202 367 1
202 514 1
202 571 1
202 634 1
202 751 1
202 793 1
202 881 1
202 1032 1
203 47 1
203 122 1
203 234 1
203 341 1
203 368 1
203 515 1
203 572 1
203 635 1
203 752 1
203 794 1
203 882 1
203 1004 1
204 48 1
204 123 1
204 235 1
204 313 1
204 369 1
204 516 1
204 573 1
204 636 1
204 753 1
204 795 1
204 883 1
204 976 1
205 49 1
205 124 1
205 236 1
205 285 1
205 370 1
205 517 1
205 574 1
205 637 1
205 754 1
205 796 1
205 884 1
205 1035 1
206 50 1
206 125 1
206 237 1
206 344 1
206 371 1
206 518 1
206 575 1
206 638 1
206 755 1
206 797 1
206 885 1
206 1007 1
207 51 1
207 126 1
207 238 1
207 316 1
207 372 1
207 519 1
207 576 1
207 639 1
207 756 1
207 798 1
207 886 1
207 979 1
208 52 1
208 127 1
208 239 1
208 288 1
208 373 1
208 520 1
208 577 1
208 640 1
208 757 1
208 799 1
208 887 1
208 1038 1
209 53 1
209 128 1
209 240 1
209 347 1
209 374 1
209 521 1
209 578 1
209 641 1
209 758 1
209 800 1
209 888 1
209 1010 1
210 54 1
210 129 1
210 241 1
210 319 1
210 375 1
210 522 1
210 579 1
210 642 1
210 759 1
210 801 1
210 889 1
210 982 1
211 55 1
211 130 1
211 242 1
211 291 1
211 376 1
211 436 1
211 580 1
211 643 1
211 760 1
211 802 1
211 890 1
211 1041 1
212 56 1
212 131 1
212 243 1
212 263 1
212 377 1
212 437 1
212 581 1
212 644 1
212 761 1
212 803 1
212 891 1
212 1013 1
213 57 1
213 132 1
213 244 1
213 322 1
213 378 1
213 438 1
213 582 1
213 645 1
213 762 1
213 804 1
213 892 1
213 985 1
214 58 1
214 133 1
214 245 1
214 294 1
214 379 1
214 439 1
214 583 1
214 646 1
214 763 1
214 805 1
214 893 1
214 1044 1
215 59 1
215 134 1
215 246 1
215 266 1
215 380 1
215 440 1
215 584 1
215 647 1
215 764 1
215 806 1
215 894 1
215 1016 1
216 60 1
216 135 1
216 247 1
216 325 1
216 381 1
216 441 1
216 585 1
216 648 1
216 765 1
216 807 1
216 895 1
216 988 1
217 61 1
217 136 1
217 248 1
217 297 1
217 382 1
217 442 1
217 586 1
217 649 1
217 766 1
217 808 1
217 896 1
217 960 1
218 62 1
218 137 1
218 249 1
218 269 1
218 383 1
218 443 1
218 587 1
218 650 1
218 767 1
218 809 1
218 897 1
218 1019 1
219 63 1
219 138 1
219 250 1
219 328 1
219 384 1
219 444 1
219 588 1
219 651 1
219 768 1
219 810 1
219 898 1
219 991 1
220 64 1
220 139 1
220 251 1
220 300 1
220 385 1
220 445 1
220 589 1
220 652 1
220 769 1
220 811 1
220 899 1
220 963 1
221 65 1
221 140 1
221 252 1
221 272 1
221 386 1
221 446 1
221 590 1
221 653 1
221 770 1
221 812 1
221 900 1
221 1022 1
222 66 1
222 141 1
222 253 1
222 331 1
222 387 1
222 447 1
222 591 1
222 654 1
222 771 1
222 813 1
222 901 1
222 994 1
223 67 1
223 142 1
223 254 1
223 303 1
223 388 1
223 448 1
223 592 1
223 655 1
223 772 1
223 814 1
223 902 1
223 966 1
224 68 1
224 143 1
224 255 1
224 275 1
224 389 1
224 449 1
224 593 1
224 656 1
224 773 1
224 815 1
224 903 1
224 1025 1
225 69 1
225 144 1
225 256 1
225 334 1
225 390 1
225 450 1
225 594 1
225 657 1
225 774 1
225 816 1
225 904 1
225 997 1
226 70 1
226 145 1
226 257 1
226 306 1
226 391 1
226 451 1
226 595 1
226 658 1
226 775 1
226 817 1
226 905 1
226 969 1
227 71 1
227 146 1
227 258 1
227 278 1
227 392 1
227 452 1
227 596 1
227 659 1
227 776 1
227 818 1
227 906 1
227 1028 1
228 72 1
228 147 1
228 259 1
228 337 1
228 393 1
228 453 1
228 597 1
228 660 1
228 777 1
228 819 1
228 907 1
228 1000 1
229 73 1
229 148 1
229 260 1
229 309 1
229 394 1
229 454 1
229 598 1
229 661 1
229 778 1
229 820 1
229 908 1
229 972 1
230 74 1
230 149 1
230 261 1
230 281 1
230 395 1
230 455 1
230 599 1
230 662 1
230 779 1
230 821 1
230 909 1
230 1031 1
231 75 1
231 150 1
231 175 1
231 340 1
231 396 1
231 456 1
231 600 1
231 663 1
231 780 1
231 822 1
231 910 1
231 1003 1
232 76 1
232 151 1
232 176 1
232 312 1
232 397 1
232 457 1
232 601 1
232 664 1
232 781 1
232 823 1
232 911 1
232 975 1
233 77 1
233 152 1
233 177 1
233 284 1
233 398 1
233 458 1
233 602 1
233 665 1
233 782 1
233 824 1
233 912 1
233 1034 1
234 78 1
234 153 1
234 178 1
234 343 1
234 399 1
234 459 1
234 603 1
234 666 1
234 783 1
234 825 1
234 913 1
234 1006 1
235 79 1
235 154 1
235 179 1
235 315 1
235 400 1
235 460 1
235 604 1
235 667 1
235 697 1
235 826 1
235 914 1
235 978 1
236 80 1
236 155 1
236 180 1
236 287 1
236 401 1
236 461 1
236 605 1
236 668 1
236 698 1
236 827 1
236 915 1
236 1037 1
237 81 1
237 156 1
237 181 1
237 346 1
237 402 1
237 462 1
237 606 1
237 669 1
237 699 1
237 828 1
237 916 1
237 1009 1
238 82 1
238 157 1
238 182 1
238 318 1
238 403 1
238 463 1
238 607 1
238 670 1
238 700 1
238 829 1
238 917 1
238 981 1
239 83 1
239 158 1
239 183 1
239 290 1
239 404 1
239 464 1
239 608 1
239 671 1
239 701 1
239 830 1
239 918 1
239 1040 1
240 84 1
240 159 1
240 184 1
240 262 1
240 405 1
240 465 1
240 609 1
240 672 1
240 702 1
240 831 1
240 919 1
240 1012 1
241 85 1
241 160 1
241 185 1
241 321 1
241 406 1
241 466 1
241 523 1
241 673 1
241 703 1
241 832 1
241 920 1
241 984 1
242 86 1
242 161 1
242 186 1
242 293 1
242 407 1
242 467 1
242 524 1
242 674 1
242 704 1
242 833 1
242 921 1
242 1043 1
243 87 1
243 162 1
243 187 1
243 265 1
243 408 1
243 468 1
243 525 1
243 675 1
243 705 1
243 834 1
243 922 1
243 1015 1
244 1 1
244 163 1
244 188 1
244 324 1
244 409 1
244 469 1
244 526 1
244 676 1
244 706 1
244 835 1
244 923 1
244 987 1
245 2 1
245 164 1
245 189 1
245 296 1
245 410 1
245 470 1
245 527 1
245 677 1
245 707 1
245 836 1
245 924 1
245 959 1
246 3 1
246 165 1
246 190 1
246 268 1
246 411 1
246 471 1
246 528 1
246 678 1
246 708 1
246 837 1
246 925 1
246 1018 1
247 4 1
247 166 1
247 191 1
247 327 1
247 412 1
247 472 1
247 529 1
247 679 1
247 709 1
247 838 1
247 926 1
247 990 1
248 5 1
248 167 1
248 192 1
248 299 1
248 413 1
248 473 1
248 530 1
248 680 1
248 710 1
248 839 1
248 927 1
248 962 1
249 6 1
249 168 1
249 193 1
249 271 1
249 414 1
249 474 1
249 531 1
249 681 1
249 711 1
249 840 1
249 928 1
249 1021 1
250 7 1
250 169 1
250 194 1
250 330 1
250 415 1
250 475 1
250 532 1
250 682 1
250 712 1
250 841 1
250 929 1
250 993 1
251 8 1
251 170 1
251 195 1
251 302 1
251 416 1
251 476 1
251 533 1
251 683 1
251 713 1
251 842 1
251 930 1
251 965 1
252 9 1
252 171 1
252 196 1
252 274 1
252 417 1
252 477 1
252 534 1
252 684 1
252 714 1
252 843 1
252 931 1
252 1024 1
253 10 1
253 172 1
253 197 1
253 333 1
253 418 1
253 478 1
253 535 1
253 685 1
253 715 1
253 844 1
253 932 1
253 996 1
254 11 1
254 173 1
254 198 1
254 305 1
254 419 1
254 479 1
254 536 1
254 686 1
254 716 1
254 845 1
254 933 1
254 968 1
255 12 1
255 174 1
255 199 1
255 277 1
255 420 1
255 480 1
255 537 1
255 687 1
255 717 1
255 846 1
255 934 1
255 1027 1
256 13 1
256 88 1
256 200 1
256 336 1
256 421 1
256 481 1
256 538 1
256 688 1
256 718 1
256 847 1
256 935 1
256 999 1
257 14 1
257 89 1
257 201 1
257 308 1
257 422 1
257 482 1
257 539 1
257 689 1
257 719 1
257 848 1
257 936 1
257 971 1
258 15 1
258 90 1
258 202 1
258 280 1
258 423 1
258 483 1
258 540 1
258 690 1
258 720 1
258 849 1
258 937 1
258 1030 1
259 16 1
259 91 1
259 203 1
259 339 1
259 424 1
259 484 1
259 541 1
259 691 1
259 721 1
259 850 1
259 938 1
259 1002 1
260 17 1
260 92 1
260 204 1
260 311 1
260 425 1
260 485 1
260 542 1
260 692 1
260 722 1
260 851 1
260 939 1
260 974 1
261 18 1
261 93 1
261 205 1
261 283 1
261 426 1
261 486 1
261 543 1
261 693 1
261 723 1
261 852 1
261 940 1
261 1033 1
