%%MatrixMarket matrix coordinate integer general
%
576 2304 6912
1 20 1
1 375 1
1 538 1
1 709 1
1 904 1
1 1012 1
1 1237 1
1 1366 1
1 1649 1
1 1743 1
1 2041 1
1 2296 1
2 21 1
2 248 1
2 539 1
2 710 1
2 905 1
2 1013 1
2 1238 1
2 1367 1
2 1650 1
2 1808 1
2 2042 1
2 2297 1
3 22 1
3 313 1
3 540 1
3 711 1
3 906 1
3 1014 1
3 1239 1
3 1368 1
3 1651 1
3 1873 1
3 2043 1
3 2298 1
4 23 1
4 378 1
4 541 1
4 712 1
4 907 1
4 1015 1
4 1240 1
4 1369 1
4 1652 1
4 1746 1
4 2044 1
4 2299 1
5 24 1
5 251 1
5 542 1
5 713 1
5 908 1
5 1016 1
5 1241 1
5 1370 1
5 1653 1
5 1811 1
5 2045 1
5 2300 1
6 25 1
6 316 1
6 543 1
6 714 1
6 909 1
6 1017 1
6 1242 1
6 1371 1
6 1654 1
6 1876 1
6 2046 1
6 2301 1
7 26 1
7 381 1
7 544 1
7 715 1
7 910 1
7 1018 1
7 1243 1
7 1372 1
7 1655 1
7 1749 1
7 2047 1
7 2302 1
8 27 1
8 254 1
8 545 1
8 716 1
8 911 1
8 1019 1
8 1244 1
8 1373 1
8 1656 1
8 1814 1
8 2048 1
8 2303 1
9 28 1
9 319 1
9 546 1
9 717 1
9 912 1
9 1020 1
9 1245 1
9 1374 1
9 1657 1
9 1879 1
9 2049 1
9 2304 1
10 29 1
10 384 1
10 547 1
10 718 1
10 913 1
10 1021 1
10 1246 1
10 1375 1
10 1658 1
10 1752 1
10 2050 1
10 2113 1
11 30 1
11 257 1
11 548 1
11 719 1
11 914 1
11 1022 1
11 1247 1
11 1376 1
11 1659 1
11 1817 1
11 2051 1
11 2114 1
12 31 1
12 322 1
12 549 1
12 720 1
12 915 1
12 1023 1
12 1248 1
12 1377 1
12 1660 1
12 1882 1
12 2052 1
12 2115 1
13 32 1
13 195 1
13 550 1
13 721 1
13 916 1
13 1024 1
13 1249 1
13 1378 1
13 1661 1
13 1755 1
13 2053 1
13 2116 1
14 33 1
14 260 1
14 551 1
14 722 1
14 917 1
14 1025 1
14 1250 1
14 1379 1
14 1662 1
14 1820 1
14 2054 1
14 2117 1
15 34 1
15 325 1
15 552 1
15 723 1
15 918 1
15 1026 1
15 1251 1
15 1380 1
15 1663 1
15 1885 1
15 2055 1
15 2118 1
16 35 1
16 198 1
16 553 1
16 724 1
16 919 1
16 1027 1
16 1252 1
16 1381 1
16 1664 1
16 1758 1
16 2056 1
16 2119 1
17 36 1
17 263 1
17 554 1
17 725 1
17 920 1
17 1028 1
17 1253 1
17 1382 1
17 1665 1
17 1823 1
17 2057 1
17 2120 1
18 37 1
18 328 1
18 555 1
18 726 1
18 921 1
18 1029 1
18 1254 1
18 1383 1
18 1666 1
18 1888 1
18 2058 1
18 2121 1
19 38 1
19 201 1
19 556 1
19 727 1
19 922 1
19 1030 1
19 1255 1
19 1384 1
19 1667 1
19 1761 1
19 2059 1
19 2122 1
20 39 1
20 266 1
20 557 1
20 728 1
20 923 1
20 1031 1
20 1256 1
20 1385 1
20 1668 1
20 1826 1
20 2060 1
20 2123 1
21 40 1
21 331 1
21 558 1
21 729 1
21 924 1
21 1032 1
21 1257 1
21 1386 1
21 1669 1
21 1891 1
21 2061 1
21 2124 1
22 41 1
22 204 1
22 559 1
22 730 1
22 925 1
22 1033 1
22 1258 1
22 1387 1
22 1670 1
22 1764 1
22 2062 1
22 2125 1
23 42 1
23 269 1
23 560 1
23 731 1
23 926 1
23 1034 1
23 1259 1
23 1388 1
23 1671 1
23 1829 1
23 2063 1
23 2126 1
24 43 1
24 334 1
24 561 1
24 732 1
24 927 1
24 1035 1
24 1260 1
24 1389 1
24 1672 1
24 1894 1
24 2064 1
24 2127 1
25 44 1
25 207 1
25 562 1
25 733 1
25 928 1
25 1036 1
25 1261 1
25 1390 1
25 1673 1
25 1767 1
25 2065 1
25 2128 1
26 45 1
26 272 1
26 563 1
26 734 1
26 929 1
26 1037 1
26 1262 1
26 1391 1
26 1674 1
26 1832 1
26 2066 1
26 2129 1
27 46 1
27 337 1
27 564 1
27 735 1
27 930 1
27 1038 1
27 1263 1
27 1392 1
27 1675 1
27 1897 1
27 2067 1
27 2130 1
28 47 1
28 210 1
28 565 1
28 736 1
28 931 1
28 1039 1
28 1264 1
28 1393 1
28 1676 1
28 1770 1
28 2068 1
28 2131 1
29 48 1
29 275 1
29 566 1
29 737 1
29 932 1
29 1040 1
29 1265 1
29 1394 1
29 1677 1
29 1835 1
29 2069 1
29 2132 1
30 49 1
30 340 1
30 567 1
30 738 1
30 933 1
30 1041 1
30 1266 1
30 1395 1
30 1678 1
30 1900 1
30 2070 1
30 2133 1
31 50 1
31 213 1
31 568 1
31 739 1
31 934 1
31 1042 1
31 1267 1
31 1396 1
31 1679 1
31 1773 1
31 2071 1
31 2134 1
32 51 1
32 278 1
32 569 1
32 740 1
32 935 1
32 1043 1
32 1268 1
32 1397 1
32 1680 1
32 1838 1
32 2072 1
32 2135 1
33 52 1
33 343 1
33 570 1
33 741 1
33 936 1
33 1044 1
33 1269 1
33 1398 1
33 1681 1
33 1903 1
33 2073 1
33 2136 1
34 53 1
34 216 1
34 571 1
34 742 1
34 937 1
34 1045 1
34 1270 1
34 1399 1
34 1682 1
34 1776 1
34 2074 1
34 2137 1
35 54 1
35 281 1
35 572 1
35 743 1
35 938 1
35 1046 1
35 1271 1
35 1400 1
35 1683 1
35 1841 1
35 2075 1
35 2138 1
36 55 1
36 346 1
36 573 1
36 744 1
36 939 1
36 1047 1
36 1272 1
36 1401 1
36 1684 1
36 1906 1
36 2076 1
36 2139 1
37 56 1
37 219 1
37 574 1
37 745 1
37 940 1
37 1048 1
37 1273 1
37 1402 1
37 1685 1
37 1779 1
37 2077 1
37 2140 1
38 57 1
38 284 1
38 575 1
38 746 1
38 941 1
38 1049 1
38 1274 1
38 1403 1
38 1686 1
38 1844 1
38 2078 1
38 2141 1
39 58 1
39 349 1
39 576 1
39 747 1
39 942 1
39 1050 1
39 1275 1
39 1404 1
39 1687 1
39 1909 1
39 2079 1
39 2142 1
40 59 1
40 222 1
40 385 1
40 748 1
40 943 1
40 1051 1
40 1276 1
40 1405 1
40 1688 1
40 1782 1
40 2080 1
40 2143 1
41 60 1
41 287 1
41 386 1
41 749 1
41 944 1
41 1052 1
41 1277 1
41 1406 1
41 1689 1
41 1847 1
41 2081 1
41 2144 1
42 61 1
42 352 1
42 387 1
42 750 1
42 945 1
42 1053 1
42 1278 1
42 1407 1
42 1690 1
42 1912 1
42 2082 1
42 2145 1
43 62 1
43 225 1
43 388 1
43 751 1
43 946 1
43 1054 1
43 1279 1
43 1408 1
43 1691 1
43 1785 1
43 2083 1
43 2146 1
44 63 1
44 290 1
44 389 1
44 752 1
44 947 1
44 1055 1
44 1280 1
44 1409 1
44 1692 1
44 1850 1
44 2084 1
44 2147 1
45 64 1
45 355 1
45 390 1
45 753 1
45 948 1
45 1056 1
45 1281 1
45 1410 1
45 1693 1
45 1915 1
45 2085 1
45 2148 1
46 65 1
46 228 1
46 391 1
46 754 1
46 949 1
46 1057 1
46 1282 1
46 1411 1
46 1694 1
46 1788 1
46 2086 1
46 2149 1
47 66 1
47 293 1
47 392 1
47 755 1
47 950 1
47 1058 1
47 1283 1
47 1412 1
47 1695 1
47 1853 1
47 2087 1
47 2150 1
48 67 1
48 358 1
48 393 1
48 756 1
48 951 1
48 1059 1
48 1284 1
48 1413 1
48 1696 1
48 1918 1
48 2088 1
48 2151 1
49 68 1
49 231 1
49 394 1
49 757 1
49 952 1
49 1060 1
49 1285 1
49 1414 1
49 1697 1
49 1791 1
49 2089 1
49 2152 1
50 69 1
50 296 1
50 395 1
50 758 1
50 953 1
50 1061 1
50 1286 1
50 1415 1
50 1698 1
50 1856 1
50 2090 1
50 2153 1
51 70 1
51 361 1
51 396 1
51 759 1
51 954 1
51 1062 1
51 1287 1
51 1416 1
51 1699 1
51 1729 1
51 2091 1
51 2154 1
52 71 1
52 234 1
52 397 1
52 760 1
52 955 1
52 1063 1
52 1288 1
52 1417 1
52 1700 1
52 1794 1
52 2092 1
52 2155 1
53 72 1
53 299 1
53 398 1
53 761 1
53 956 1
53 1064 1
53 1289 1
53 1418 1
53 1701 1
53 1859 1
53 2093 1
53 2156 1
54 73 1
54 364 1
54 399 1
54 762 1
54 957 1
54 1065 1
54 1290 1
54 1419 1
54 1702 1
54 1732 1
54 2094 1
54 2157 1
55 74 1
55 237 1
55 400 1
55 763 1
55 958 1
55 1066 1
55 1291 1
55 1420 1
55 1703 1
55 1797 1
55 2095 1
55 2158 1
56 75 1
56 302 1
56 401 1
56 764 1
56 959 1
56 1067 1
56 1292 1
56 1421 1
56 1704 1
56 1862 1
56 2096 1
56 2159 1
57 76 1
57 367 1
57 402 1
57 765 1
57 960 1
57 1068 1
57 1293 1
57 1422 1
57 1705 1
57 1735 1
57 2097 1
57 2160 1
58 77 1
58 240 1
58 403 1
58 766 1
58 769 1
58 1069 1
58 1294 1
58 1423 1
58 1706 1
58 1800 1
58 2098 1
58 2161 1
59 78 1
59 305 1
59 404 1
59 767 1
59 770 1
59 1070 1
59 1295 1
59 1424 1
59 1707 1
59 1865 1
59 2099 1
59 2162 1
60 79 1
60 370 1
60 405 1
60 768 1
60 771 1
60 1071 1
60 1296 1
60 1425 1
60 1708 1
60 1738 1
60 2100 1
60 2163 1
61 80 1
61 243 1
61 406 1
61 577 1
61 772 1
61 1072 1
61 1297 1
61 1426 1
61 1709 1
61 1803 1
61 2101 1
61 2164 1
62 81 1
62 308 1
62 407 1
62 578 1
62 773 1
62 1073 1
62 1298 1
62 1427 1
62 1710 1
62 1868 1
62 2102 1
62 2165 1
63 82 1
63 373 1
63 408 1
63 579 1
63 774 1
63 1074 1
63 1299 1
63 1428 1
63 1711 1
63 1741 1
63 2103 1
63 2166 1
64 83 1
64 246 1
64 409 1
64 580 1
64 775 1
64 1075 1
64 1300 1
64 1429 1
64 1712 1
64 1806 1
64 2104 1
64 2167 1
65 84 1
65 311 1
65 410 1
65 581 1
65 776 1
65 1076 1
65 1301 1
65 1430 1
65 1713 1
65 1871 1
65 2105 1
65 2168 1
66 85 1
66 376 1
66 411 1
66 582 1
66 777 1
66 1077 1
66 1302 1
66 1431 1
66 1714 1
66 1744 1
66 2106 1
66 2169 1
67 86 1
67 249 1
67 412 1
67 583 1
67 778 1
67 1078 1
67 1303 1
67 1432 1
67 1715 1
67 1809 1
67 2107 1
67 2170 1
68 87 1
68 314 1
68 413 1
68 584 1
68 779 1
68 1079 1
68 1304 1
68 1433 1
68 1716 1
68 1874 1
68 2108 1
68 2171 1
69 88 1
69 379 1
69 414 1
69 585 1
69 780 1
69 1080 1
69 1305 1
69 1434 1
69 1717 1
69 1747 1
69 2109 1
69 2172 1
70 89 1
70 252 1
70 415 1
70 586 1
70 781 1
70 1081 1
70 1306 1
70 1435 1
70 1718 1
70 1812 1
70 2110 1
70 2173 1
71 90 1
71 317 1
71 416 1
71 587 1
71 782 1
71 1082 1
71 1307 1
71 1436 1
71 1719 1
71 1877 1
71 2111 1
71 2174 1
72 91 1
72 382 1
72 417 1
72 588 1
72 783 1
72 1083 1
72 1308 1
72 1437 1
72 1720 1
72 1750 1
72 2112 1
72 2175 1
73 92 1
73 255 1
73 418 1
73 589 1
73 784 1
73 1084 1
73 1309 1
73 1438 1
73 1721 1
73 1815 1
73 1921 1
73 2176 1
74 93 1
74 320 1
74 419 1
74 590 1
74 785 1
74 1085 1
74 1310 1
74 1439 1
74 1722 1
74 1880 1
74 1922 1
74 2177 1
75 94 1
75 193 1
75 420 1
75 591 1
75 786 1
75 1086 1
75 1311 1
75 1440 1
75 1723 1
75 1753 1
75 1923 1
75 2178 1
76 95 1
76 258 1
76 421 1
76 592 1
76 787 1
76 1087 1
76 1312 1
76 1441 1
76 1724 1
76 1818 1
76 1924 1
76 2179 1
77 96 1
77 323 1
77 422 1
77 593 1
77 788 1
77 1088 1
77 1313 1
77 1442 1
77 1725 1
77 1883 1
77 1925 1
77 2180 1
78 97 1
78 196 1
78 423 1
78 594 1
78 789 1
78 1089 1
78 1314 1
78 1443 1
78 1726 1
78 1756 1
78 1926 1
78 2181 1
79 98 1
79 261 1
79 424 1
79 595 1
79 790 1
79 1090 1
79 1315 1
79 1444 1
79 1727 1
79 1821 1
79 1927 1
79 2182 1
80 99 1
80 326 1
80 425 1
80 596 1
80 791 1
80 1091 1
80 1316 1
80 1445 1
80 1728 1
80 1886 1
80 1928 1
80 2183 1
81 100 1
81 199 1
81 426 1
81 597 1
81 792 1
81 1092 1
81 1317 1
81 1446 1
81 1537 1
81 1759 1
81 1929 1
81 2184 1
82 101 1
82 264 1
82 427 1
82 598 1
82 793 1
82 1093 1
82 1318 1
82 1447 1
82 1538 1
82 1824 1
82 1930 1
82 2185 1
83 102 1
83 329 1
83 428 1
83 599 1
83 794 1
83 1094 1
83 1319 1
83 1448 1
83 1539 1
83 1889 1
83 1931 1
83 2186 1
84 103 1
84 202 1
84 429 1
84 600 1
84 795 1
84 1095 1
84 1320 1
84 1449 1
84 1540 1
84 1762 1
84 1932 1
84 2187 1
85 104 1
85 267 1
85 430 1
85 601 1
85 796 1
85 1096 1
85 1321 1
85 1450 1
85 1541 1
85 1827 1
85 1933 1
85 2188 1
86 105 1
86 332 1
86 431 1
86 602 1
86 797 1
86 1097 1
86 1322 1
86 1451 1
86 1542 1
86 1892 1
86 1934 1
86 2189 1
87 106 1
87 205 1
87 432 1
87 603 1
87 798 1
87 1098 1
87 1323 1
87 1452 1
87 1543 1
87 1765 1
87 1935 1
87 2190 1
88 107 1
88 270 1
88 433 1
88 604 1
88 799 1
88 1099 1
88 1324 1
88 1453 1
88 1544 1
88 1830 1
88 1936 1
88 2191 1
89 108 1
89 335 1
89 434 1
89 605 1
89 800 1
89 1100 1
89 1325 1
89 1454 1
89 1545 1
89 1895 1
89 1937 1
89 2192 1
90 109 1
90 208 1
90 435 1
90 606 1
90 801 1
90 1101 1
90 1326 1
90 1455 1
90 1546 1
90 1768 1
90 1938 1
90 2193 1
91 110 1
91 273 1
91 436 1
91 607 1
91 802 1
91 1102 1
91 1327 1
91 1456 1
91 1547 1
91 1833 1
91 1939 1
91 2194 1
92 111 1
92 338 1
92 437 1
92 608 1
92 803 1
92 1103 1
92 1328 1
92 1457 1
92 1548 1
92 1898 1
92 1940 1
92 2195 1
93 112 1
93 211 1
93 438 1
93 609 1
93 804 1
93 1104 1
93 1329 1
93 1458 1
93 1549 1
93 1771 1
93 1941 1
93 2196 1
94 113 1
94 276 1
94 439 1
94 610 1
94 805 1
94 1105 1
94 1330 1
94 1459 1
94 1550 1
94 1836 1
94 1942 1
94 2197 1
95 114 1
95 341 1
95 440 1
95 611 1
95 806 1
95 1106 1
95 1331 1
95 1460 1
95 1551 1
95 1901 1
95 1943 1
95 2198 1
96 115 1
96 214 1
96 441 1
96 612 1
96 807 1
96 1107 1
96 1332 1
96 1461 1
96 1552 1
96 1774 1
96 1944 1
96 2199 1
97 116 1
97 279 1
97 442 1
97 613 1
97 808 1
97 1108 1
97 1333 1
97 1462 1
97 1553 1
97 1839 1
97 1945 1
97 2200 1
98 117 1
98 344 1
98 443 1
98 614 1
98 809 1
98 1109 1
98 1334 1
98 1463 1
98 1554 1
98 1904 1
98 1946 1
98 2201 1
99 118 1
99 217 1
99 444 1
99 615 1
99 810 1
99 1110 1
99 1335 1
99 1464 1
99 1555 1
99 1777 1
99 1947 1
99 2202 1
100 119 1
100 282 1
100 445 1
100 616 1
100 811 1
100 1111 1
100 1336 1
100 1465 1
100 1556 1
100 1842 1
100 1948 1
100 2203 1
101 120 1
101 347 1
101 446 1
101 617 1
101 812 1
101 1112 1
101 1337 1
101 1466 1
101 1557 1
101 1907 1
101 1949 1
101 2204 1
102 121 1
102 220 1
102 447 1
102 618 1
102 813 1
102 1113 1
102 1338 1
102 1467 1
102 1558 1
102 1780 1
102 1950 1
102 2205 1
103 122 1
103 285 1
103 448 1
103 619 1
103 814 1
103 1114 1
103 1339 1
103 1468 1
103 1559 1
103 1845 1
103 1951 1
103 2206 1
104 123 1
104 350 1
104 449 1
104 620 1
104 815 1
104 1115 1
104 1340 1
104 1469 1
104 1560 1
104 1910 1
104 1952 1
104 2207 1
105 124 1
105 223 1
105 450 1
105 621 1
105 816 1
105 1116 1
105 1341 1
105 1470 1
105 1561 1
105 1783 1
105 1953 1
105 2208 1
106 125 1
106 288 1
106 451 1
106 622 1
106 817 1
106 1117 1
106 1342 1
106 1471 1
106 1562 1
106 1848 1
106 1954 1
106 2209 1
107 126 1
107 353 1
107 452 1
107 623 1
107 818 1
107 1118 1
107 1343 1
107 1472 1
107 1563 1
107 1913 1
107 1955 1
107 2210 1
108 127 1
108 226 1
108 453 1
108 624 1
108 819 1
108 1119 1
108 1344 1
108 1473 1
108 1564 1
108 1786 1
108 1956 1
108 2211 1
109 128 1
109 291 1
109 454 1
109 625 1
109 820 1
109 1120 1
109 1153 1
109 1474 1
109 1565 1
109 1851 1
109 1957 1
109 2212 1
110 129 1
110 356 1
110 455 1
110 626 1
110 821 1
110 1121 1
110 1154 1
110 1475 1
110 1566 1
110 1916 1
110 1958 1
110 2213 1
111 130 1
111 229 1
111 456 1
111 627 1
111 822 1
111 1122 1
111 1155 1
111 1476 1
111 1567 1
111 1789 1
111 1959 1
111 2214 1
112 131 1
112 294 1
112 457 1
112 628 1
112 823 1
112 1123 1
112 1156 1
112 1477 1
112 1568 1
112 1854 1
112 1960 1
112 2215 1
113 132 1
113 359 1
113 458 1
113 629 1
113 824 1
113 1124 1
113 1157 1
113 1478 1
113 1569 1
113 1919 1
113 1961 1
113 2216 1
114 133 1
114 232 1
114 459 1
114 630 1
114 825 1
114 1125 1
114 1158 1
114 1479 1
114 1570 1
114 1792 1
114 1962 1
114 2217 1
115 134 1
115 297 1
115 460 1
115 631 1
115 826 1
115 1126 1
115 1159 1
115 1480 1
115 1571 1
115 1857 1
115 1963 1
115 2218 1
116 135 1
116 362 1
116 461 1
116 632 1
116 827 1
116 1127 1
116 1160 1
116 1481 1
116 1572 1
116 1730 1
116 1964 1
116 2219 1
117 136 1
117 235 1
117 462 1
117 633 1
117 828 1
117 1128 1
117 1161 1
117 1482 1
117 1573 1
117 1795 1
117 1965 1
117 2220 1
118 137 1
118 300 1
118 463 1
118 634 1
118 829 1
118 1129 1
118 1162 1
118 1483 1
118 1574 1
118 1860 1
118 1966 1
118 2221 1
119 138 1
119 365 1
119 464 1
119 635 1
119 830 1
119 1130 1
119 1163 1
119 1484 1
119 1575 1
119 1733 1
119 1967 1
119 2222 1
120 139 1
120 238 1
120 465 1
120 636 1
120 831 1
120 1131 1
120 1164 1
120 1485 1
120 1576 1
120 1798 1
120 1968 1
120 2223 1
121 140 1
121 303 1
121 466 1
121 637 1
121 832 1
121 1132 1
121 1165 1
121 1486 1
121 1577 1
121 1863 1
121 1969 1
121 2224 1
122 141 1
122 368 1
122 467 1
122 638 1
122 833 1
122 1133 1
122 1166 1
122 1487 1
122 1578 1
122 1736 1
122 1970 1
122 2225 1
123 142 1
123 241 1
123 468 1
123 639 1
123 834 1
123 1134 1
123 1167 1
123 1488 1
123 1579 1
123 1801 1
123 1971 1
123 2226 1
124 143 1
124 306 1
124 469 1
124 640 1
124 835 1
124 1135 1
124 1168 1
124 1489 1
124 1580 1
124 1866 1
124 1972 1
124 2227 1
125 144 1
125 371 1
125 470 1
125 641 1
125 836 1
125 1136 1
125 1169 1
125 1490 1
125 1581 1
125 1739 1
125 1973 1
125 2228 1
126 145 1
126 244 1
126 471 1
126 642 1
126 837 1
126 1137 1
126 1170 1
126 1491 1
126 1582 1
126 1804 1
126 1974 1
126 2229 1
127 146 1
127 309 1
127 472 1
127 643 1
127 838 1
127 1138 1
127 1171 1
127 1492 1
127 1583 1
127 1869 1
127 1975 1
127 2230 1
128 147 1
128 374 1
128 473 1
128 644 1
128 839 1
128 1139 1
128 1172 1
128 1493 1
128 1584 1
128 1742 1
128 1976 1
128 2231 1
129 148 1
129 247 1
129 474 1
129 645 1
129 840 1
129 1140 1
129 1173 1
129 1494 1
129 1585 1
129 1807 1
129 1977 1
129 2232 1
130 149 1
130 312 1
130 475 1
130 646 1
130 841 1
130 1141 1
130 1174 1
130 1495 1
130 1586 1
130 1872 1
130 1978 1
130 2233 1
131 150 1
131 377 1
131 476 1
131 647 1
131 842 1
131 1142 1
131 1175 1
131 1496 1
131 1587 1
131 1745 1
131 1979 1
131 2234 1
132 151 1
132 250 1
132 477 1
132 648 1
132 843 1
132 1143 1
132 1176 1
132 1497 1
132 1588 1
132 1810 1
132 1980 1
132 2235 1
133 152 1
133 315 1
133 478 1
133 649 1
133 844 1
133 1144 1
133 1177 1
133 1498 1
133 1589 1
133 1875 1
133 1981 1
133 2236 1
134 153 1
134 380 1
134 479 1
134 650 1
134 845 1
134 1145 1
134 1178 1
134 1499 1
134 1590 1
134 1748 1
134 1982 1
134 2237 1
135 154 1
135 253 1
135 480 1
135 651 1
135 846 1
135 1146 1
135 1179 1
135 1500 1
135 1591 1
135 1813 1
135 1983 1
135 2238 1
136 155 1
136 318 1
136 481 1
136 652 1
136 847 1
136 1147 1
136 1180 1
136 1501 1
136 1592 1
136 1878 1
136 1984 1
136 2239 1
137 156 1
137 383 1
137 482 1
137 653 1
137 848 1
137 1148 1
137 1181 1
137 1502 1
137 1593 1
137 1751 1
137 1985 1
137 2240 1
138 157 1
138 256 1
138 483 1
138 654 1
138 849 1
138 1149 1
138 1182 1
138 1503 1
138 1594 1
138 1816 1
138 1986 1
138 2241 1
139 158 1
139 321 1
139 484 1
139 655 1
139 850 1
139 1150 1
139 1183 1
139 1504 1
139 1595 1
139 1881 1
139 1987 1
139 2242 1
140 159 1
140 194 1
140 485 1
140 656 1
140 851 1
140 1151 1
140 1184 1
140 1505 1
140 1596 1
140 1754 1
140 1988 1
140 2243 1
141 160 1
141 259 1
141 486 1
141 657 1
141 852 1
141 1152 1
141 1185 1
141 1506 1
141 1597 1
141 1819 1
141 1989 1
141 2244 1
142 161 1
142 324 1
142 487 1
142 658 1
142 853 1
142 961 1
142 1186 1
142 1507 1
142 1598 1
142 1884 1
142 1990 1
142 2245 1
143 162 1
143 197 1
143 488 1
143 659 1
143 854 1
143 962 1
143 1187 1
143 1508 1
143 1599 1
143 1757 1
143 1991 1
143 2246 1
144 163 1
144 262 1
144 489 1
144 660 1
144 855 1
144 963 1
144 1188 1
144 1509 1
144 1600 1
144 1822 1
144 1992 1
144 2247 1
145 164 1
145 327 1
145 490 1
145 661 1
145 856 1
145 964 1
145 1189 1
145 1510 1
145 1601 1
145 1887 1
145 1993 1
145 2248 1
146 165 1
146 200 1
146 491 1
146 662 1
146 857 1
146 965 1
146 1190 1
146 1511 1
146 1602 1
146 1760 1
146 1994 1
146 2249 1
147 166 1
147 265 1
147 492 1
147 663 1
147 858 1
147 966 1
147 1191 1
147 1512 1
147 1603 1
147 1825 1
147 1995 1
147 2250 1
148 167 1
148 330 1
148 493 1
148 664 1
148 859 1
148 967 1
148 1192 1
148 1513 1
148 1604 1
148 1890 1
148 1996 1
148 2251 1
149 168 1
149 203 1
149 494 1
149 665 1
149 860 1
149 968 1
149 1193 1
149 1514 1
149 1605 1
149 1763 1
149 1997 1
149 2252 1
150 169 1
150 268 1
150 495 1
150 666 1
150 861 1
150 969 1
150 1194 1
150 1515 1
150 1606 1
150 1828 1
150 1998 1
150 2253 1
151 170 1
151 333 1
151 496 1
151 667 1
151 862 1
151 970 1
151 1195 1
151 1516 1
151 1607 1
151 1893 1
151 1999 1
151 2254 1
152 171 1
152 206 1
152 497 1
152 668 1
152 863 1
152 971 1
152 1196 1
152 1517 1
152 1608 1
152 1766 1
152 2000 1
152 2255 1
153 172 1
153 271 1
153 498 1
153 669 1
153 864 1
153 972 1
153 1197 1
153 1518 1
153 1609 1
153 1831 1
153 2001 1
153 2256 1
154 173 1
154 336 1
154 499 1
154 670 1
154 865 1
154 973 1
154 1198 1
154 1519 1
154 1610 1
154 1896 1
154 2002 1
154 2257 1
155 174 1
155 209 1
155 500 1
155 671 1
155 866 1
155 974 1
155 1199 1
155 1520 1
155 1611 1
155 1769 1
155 2003 1
155 2258 1
156 175 1
156 274 1
156 501 1
156 672 1
156 867 1
156 975 1
156 1200 1
156 1521 1
156 1612 1
156 1834 1
156 2004 1
156 2259 1
157 176 1
157 339 1
157 502 1
157 673 1
157 868 1
157 976 1
157 1201 1
157 1522 1
157 1613 1
157 1899 1
157 2005 1
157 2260 1
158 177 1
158 212 1
158 503 1
158 674 1
158 869 1
158 977 1
158 1202 1
158 1523 1
158 1614 1
158 1772 1
158 2006 1
158 2261 1
159 178 1
159 277 1
159 504 1
159 675 1
159 870 1
159 978 1
159 1203 1
159 1524 1
159 1615 1
159 1837 1
159 2007 1
159 2262 1
160 179 1
160 342 1
160 505 1
160 676 1
160 871 1
160 979 1
160 1204 1
160 1525 1
160 1616 1
160 1902 1
160 2008 1
160 2263 1
161 180 1
161 215 1
161 506 1
161 677 1
161 872 1
161 980 1
161 1205 1
161 1526 1
161 1617 1
161 1775 1
161 2009 1
161 2264 1
162 181 1
162 280 1
162 507 1
162 678 1
162 873 1
162 981 1
162 1206 1
162 1527 1
162 1618 1
162 1840 1
162 2010 1
162 2265 1
163 182 1
163 345 1
163 508 1
163 679 1
163 874 1
163 982 1
163 1207 1
163 1528 1
163 1619 1
163 1905 1
163 2011 1
163 2266 1
164 183 1
164 218 1
164 509 1
164 680 1
164 875 1
164 983 1
164 1208 1
164 1529 1
164 1620 1
164 1778 1
164 2012 1
164 2267 1
165 184 1
165 283 1
165 510 1
165 681 1
165 876 1
165 984 1
165 1209 1
165 1530 1
165 1621 1
165 1843 1
165 2013 1
165 2268 1
166 185 1
166 348 1
166 511 1
166 682 1
166 877 1
166 985 1
166 1210 1
166 1531 1
166 1622 1
166 1908 1
166 2014 1
166 2269 1
167 186 1
167 221 1
167 512 1
167 683 1
167 878 1
167 986 1
167 1211 1
167 1532 1
167 1623 1
167 1781 1
167 2015 1
167 2270 1
168 187 1
168 286 1
168 513 1
168 684 1
168 879 1
168 987 1
168 1212 1
168 1533 1
168 1624 1
168 1846 1
168 2016 1
168 2271 1
169 188 1
169 351 1
169 514 1
169 685 1
169 880 1
169 988 1
169 1213 1
169 1534 1
169 1625 1
169 1911 1
169 2017 1
169 2272 1
170 189 1
170 224 1
170 515 1
170 686 1
170 881 1
170 989 1
170 1214 1
170 1535 1
170 1626 1
170 1784 1
170 2018 1
170 2273 1
171 190 1
171 289 1
171 516 1
171 687 1
171 882 1
171 990 1
171 1215 1
171 1536 1
171 1627 1
171 1849 1
171 2019 1
171 2274 1
172 191 1
172 354 1
172 517 1
172 688 1
172 883 1
172 991 1
172 1216 1
172 1345 1
172 1628 1
172 1914 1
172 2020 1
172 2275 1
173 192 1
173 227 1
173 518 1
173 689 1
173 884 1
173 992 1
173 1217 1
173 1346 1
173 1629 1
173 1787 1
173 2021 1
173 2276 1
174 1 1
174 292 1
174 519 1
174 690 1
174 885 1
174 993 1
174 1218 1
174 1347 1
174 1630 1
174 1852 1
174 2022 1
174 2277 1
175 2 1
175 357 1
175 520 1
175 691 1
175 886 1
175 994 1
175 1219 1
175 1348 1
175 1631 1
175 1917 1
175 2023 1
175 2278 1
176 3 1
176 230 1
176 521 1
176 692 1
176 887 1
176 995 1
176 1220 1
176 1349 1
176 1632 1
176 1790 1
176 2024 1
176 2279 1
177 4 1
177 295 1
177 522 1
177 693 1
177 888 1
177 996 1
177 1221 1
177 1350 1
177 1633 1
177 1855 1
177 2025 1
177 2280 1
178 5 1
178 360 1
178 523 1
178 694 1
178 889 1
178 997 1
178 1222 1
178 1351 1
178 1634 1
178 1920 1
178 2026 1
178 2281 1
179 6 1
179 233 1
179 524 1
179 695 1
179 890 1
179 998 1
179 1223 1
179 1352 1
179 1635 1
179 1793 1
179 2027 1
179 2282 1
180 7 1
180 298 1
180 525 1
180 696 1
180 891 1
180 999 1
180 1224 1
180 1353 1
180 1636 1
180 1858 1
180 2028 1
180 2283 1
181 8 1
181 363 1
181 526 1
181 697 1
181 892 1
181 1000 1
181 1225 1
181 1354 1
181 1637 1
181 1731 1
181 2029 1
181 2284 1
182 9 1
182 236 1
182 527 1
182 698 1
182 893 1
182 1001 1
182 1226 1
182 1355 1
182 1638 1
182 1796 1
182 2030 1
182 2285 1
183 10 1
183 301 1
183 528 1
183 699 1
183 894 1
183 1002 1
183 1227 1
183 1356 1
183 1639 1
183 1861 1
183 2031 1
183 2286 1
184 11 1
184 366 1
184 529 1
184 700 1
184 895 1
184 1003 1
184 1228 1
184 1357 1
184 1640 1
184 1734 1
184 2032 1
184 2287 1
185 12 1
185 239 1
185 530 1
185 701 1
185 896 1
185 1004 1
185 1229 1
185 1358 1
185 1641 1
185 1799 1
185 2033 1
185 2288 1
186 13 1
186 304 1
186 531 1
186 702 1
186 897 1
186 1005 1
186 1230 1
186 1359 1
186 1642 1
186 1864 1
186 2034 1
186 2289 1
187 14 1
187 369 1
187 532 1
187 703 1
187 898 1
187 1006 1
187 1231 1
187 1360 1
187 1643 1
187 1737 1
187 2035 1
187 2290 1
188 15 1
188 242 1
188 533 1
188 704 1
188 899 1
188 1007 1
188 1232 1
188 1361 1
188 1644 1
188 1802 1
188 2036 1
188 2291 1
189 16 1
189 307 1
189 534 1
189 705 1
189 900 1
189 1008 1
189 1233 1
189 1362 1
189 1645 1
189 1867 1
189 2037 1
189 2292 1
190 17 1
190 372 1
190 535 1
190 706 1
190 901 1
190 1009 1
190 1234 1
190 1363 1
190 1646 1
190 1740 1
190 2038 1
190 2293 1
191 18 1
191 245 1
191 536 1
191 707 1
191 902 1
191 1010 1
191 1235 1
191 1364 1
191 1647 1
191 1805 1
191 2039 1
191 2294 1
192 19 1
192 310 1
192 537 1
192 708 1
192 903 1
192 1011 1
192 1236 1
192 1365 1
192 1648 1
192 1870 1
192 2040 1
192 2295 1
193 52 1
193 212 1
193 567 1
193 730 1
193 901 1
193 1096 1
193 1336 1
193 1429 1
193 1558 1
193 1841 1
193 1935 1
193 2233 1
194 53 1
194 213 1
194 440 1
194 731 1
194 902 1
194 1097 1
194 1337 1
194 1430 1
194 1559 1
194 1842 1
194 2000 1
194 2234 1
195 54 1
195 214 1
195 505 1
195 732 1
195 903 1
195 1098 1
195 1338 1
195 1431 1
195 1560 1
195 1843 1
195 2065 1
195 2235 1
196 55 1
196 215 1
196 570 1
196 733 1
196 904 1
196 1099 1
196 1339 1
196 1432 1
196 1561 1
196 1844 1
196 1938 1
196 2236 1
197 56 1
197 216 1
197 443 1
197 734 1
197 905 1
197 1100 1
197 1340 1
197 1433 1
197 1562 1
197 1845 1
197 2003 1
197 2237 1
198 57 1
198 217 1
198 508 1
198 735 1
198 906 1
198 1101 1
198 1341 1
198 1434 1
198 1563 1
198 1846 1
198 2068 1
198 2238 1
199 58 1
199 218 1
199 573 1
199 736 1
199 907 1
199 1102 1
199 1342 1
199 1435 1
199 1564 1
199 1847 1
199 1941 1
199 2239 1
200 59 1
200 219 1
200 446 1
200 737 1
200 908 1
200 1103 1
200 1343 1
200 1436 1
200 1565 1
200 1848 1
200 2006 1
200 2240 1
201 60 1
201 220 1
201 511 1
201 738 1
201 909 1
201 1104 1
201 1344 1
201 1437 1
201 1566 1
201 1849 1
201 2071 1
201 2241 1
202 61 1
202 221 1
202 576 1
202 739 1
202 910 1
202 1105 1
202 1153 1
202 1438 1
202 1567 1
202 1850 1
202 1944 1
202 2242 1
203 62 1
203 222 1
203 449 1
203 740 1
203 911 1
203 1106 1
203 1154 1
203 1439 1
203 1568 1
203 1851 1
203 2009 1
203 2243 1
204 63 1
204 223 1
204 514 1
204 741 1
204 912 1
204 1107 1
204 1155 1
204 1440 1
204 1569 1
204 1852 1
204 2074 1
204 2244 1
205 64 1
205 224 1
205 387 1
205 742 1
205 913 1
205 1108 1
205 1156 1
205 1441 1
205 1570 1
205 1853 1
205 1947 1
205 2245 1
206 65 1
206 225 1
206 452 1
206 743 1
206 914 1
206 1109 1
206 1157 1
206 1442 1
206 1571 1
206 1854 1
206 2012 1
206 2246 1
207 66 1
207 226 1
207 517 1
207 744 1
207 915 1
207 1110 1
207 1158 1
207 1443 1
207 1572 1
207 1855 1
207 2077 1
207 2247 1
208 67 1
208 227 1
208 390 1
208 745 1
208 916 1
208 1111 1
208 1159 1
208 1444 1
208 1573 1
208 1856 1
208 1950 1
208 2248 1
209 68 1
209 228 1
209 455 1
209 746 1
209 917 1
209 1112 1
209 1160 1
209 1445 1
209 1574 1
209 1857 1
209 2015 1
209 2249 1
210 69 1
210 229 1
210 520 1
210 747 1
210 918 1
210 1113 1
210 1161 1
210 1446 1
210 1575 1
210 1858 1
210 2080 1
210 2250 1
211 70 1
211 230 1
211 393 1
211 748 1
211 919 1
211 1114 1
211 1162 1
211 1447 1
211 1576 1
211 1859 1
211 1953 1
211 2251 1
212 71 1
212 231 1
212 458 1
212 749 1
212 920 1
212 1115 1
212 1163 1
212 1448 1
212 1577 1
212 1860 1
212 2018 1
212 2252 1
213 72 1
213 232 1
213 523 1
213 750 1
213 921 1
213 1116 1
213 1164 1
213 1449 1
213 1578 1
213 1861 1
213 2083 1
213 2253 1
214 73 1
214 233 1
214 396 1
214 751 1
214 922 1
214 1117 1
214 1165 1
214 1450 1
214 1579 1
214 1862 1
214 1956 1
214 2254 1
215 74 1
215 234 1
215 461 1
215 752 1
215 923 1
215 1118 1
215 1166 1
215 1451 1
215 1580 1
215 1863 1
215 2021 1
215 2255 1
216 75 1
216 235 1
216 526 1
216 753 1
216 924 1
216 1119 1
216 1167 1
216 1452 1
216 1581 1
216 1864 1
216 2086 1
216 2256 1
217 76 1
217 236 1
217 399 1
217 754 1
217 925 1
217 1120 1
217 1168 1
217 1453 1
217 1582 1
217 1865 1
217 1959 1
217 2257 1
218 77 1
218 237 1
218 464 1
218 755 1
218 926 1
218 1121 1
218 1169 1
218 1454 1
218 1583 1
218 1866 1
218 2024 1
218 2258 1
219 78 1
219 238 1
219 529 1
219 756 1
219 927 1
219 1122 1
219 1170 1
219 1455 1
219 1584 1
219 1867 1
219 2089 1
219 2259 1
220 79 1
220 239 1
220 402 1
220 757 1
220 928 1
220 1123 1
220 1171 1
220 1456 1
220 1585 1
220 1868 1
220 1962 1
220 2260 1
221 80 1
221 240 1
221 467 1
221 758 1
221 929 1
221 1124 1
221 1172 1
221 1457 1
221 1586 1
221 1869 1
221 2027 1
221 2261 1
222 81 1
222 241 1
222 532 1
222 759 1
222 930 1
222 1125 1
222 1173 1
222 1458 1
222 1587 1
222 1870 1
222 2092 1
222 2262 1
223 82 1
223 242 1
223 405 1
223 760 1
223 931 1
223 1126 1
223 1174 1
223 1459 1
223 1588 1
223 1871 1
223 1965 1
223 2263 1
224 83 1
224 243 1
224 470 1
224 761 1
224 932 1
224 1127 1
224 1175 1
224 1460 1
224 1589 1
224 1872 1
224 2030 1
224 2264 1
225 84 1
225 244 1
225 535 1
225 762 1
225 933 1
225 1128 1
225 1176 1
225 1461 1
225 1590 1
225 1873 1
225 2095 1
225 2265 1
226 85 1
226 245 1
226 408 1
226 763 1
226 934 1
226 1129 1
226 1177 1
226 1462 1
226 1591 1
226 1874 1
226 1968 1
226 2266 1
227 86 1
227 246 1
227 473 1
227 764 1
227 935 1
227 1130 1
227 1178 1
227 1463 1
227 1592 1
227 1875 1
227 2033 1
227 2267 1
228 87 1
228 247 1
228 538 1
228 765 1
228 936 1
228 1131 1
228 1179 1
228 1464 1
228 1593 1
228 1876 1
228 2098 1
228 2268 1
229 88 1
229 248 1
229 411 1
229 766 1
229 937 1
229 1132 1
229 1180 1
229 1465 1
229 1594 1
229 1877 1
229 1971 1
229 2269 1
230 89 1
230 249 1
230 476 1
230 767 1
230 938 1
230 1133 1
230 1181 1
230 1466 1
230 1595 1
230 1878 1
230 2036 1
230 2270 1
231 90 1
231 250 1
231 541 1
231 768 1
231 939 1
231 1134 1
231 1182 1
231 1467 1
231 1596 1
231 1879 1
231 2101 1
231 2271 1
232 91 1
232 251 1
232 414 1
232 577 1
232 940 1
232 1135 1
232 1183 1
232 1468 1
232 1597 1
232 1880 1
232 1974 1
232 2272 1
233 92 1
233 252 1
233 479 1
233 578 1
233 941 1
233 1136 1
233 1184 1
233 1469 1
233 1598 1
233 1881 1
233 2039 1
233 2273 1
234 93 1
234 253 1
234 544 1
234 579 1
234 942 1
234 1137 1
234 1185 1
234 1470 1
234 1599 1
234 1882 1
234 2104 1
234 2274 1
235 94 1
235 254 1
235 417 1
235 580 1
235 943 1
235 1138 1
235 1186 1
235 1471 1
235 1600 1
235 1883 1
235 1977 1
235 2275 1
236 95 1
236 255 1
236 482 1
236 581 1
236 944 1
236 1139 1
236 1187 1
236 1472 1
236 1601 1
236 1884 1
236 2042 1
236 2276 1
237 96 1
237 256 1
237 547 1
237 582 1
237 945 1
237 1140 1
237 1188 1
237 1473 1
237 1602 1
237 1885 1
237 2107 1
237 2277 1
238 97 1
238 257 1
238 420 1
238 583 1
238 946 1
238 1141 1
238 1189 1
238 1474 1
238 1603 1
238 1886 1
238 1980 1
238 2278 1
239 98 1
239 258 1
239 485 1
239 584 1
239 947 1
239 1142 1
239 1190 1
239 1475 1
239 1604 1
239 1887 1
239 2045 1
239 2279 1
240 99 1
240 259 1
240 550 1
240 585 1
240 948 1
240 1143 1
240 1191 1
240 1476 1
240 1605 1
240 1888 1
240 2110 1
240 2280 1
241 100 1
241 260 1
241 423 1
241 586 1
241 949 1
241 1144 1
241 1192 1
241 1477 1
241 1606 1
241 1889 1
241 1983 1
241 2281 1
242 101 1
242 261 1
242 488 1
242 587 1
242 950 1
242 1145 1
242 1193 1
242 1478 1
242 1607 1
242 1890 1
242 2048 1
242 2282 1
243 102 1
243 262 1
243 553 1
243 588 1
243 951 1
243 1146 1
243 1194 1
243 1479 1
243 1608 1
243 1891 1
243 1921 1
243 2283 1
244 103 1
244 263 1
244 426 1
244 589 1
244 952 1
244 1147 1
244 1195 1
244 1480 1
244 1609 1
244 1892 1
244 1986 1
244 2284 1
245 104 1
245 264 1
245 491 1
245 590 1
245 953 1
245 1148 1
245 1196 1
245 1481 1
245 1610 1
245 1893 1
245 2051 1
245 2285 1
246 105 1
246 265 1
246 556 1
246 591 1
246 954 1
246 1149 1
246 1197 1
246 1482 1
246 1611 1
246 1894 1
246 1924 1
246 2286 1
247 106 1
247 266 1
247 429 1
247 592 1
247 955 1
247 1150 1
247 1198 1
247 1483 1
247 1612 1
247 1895 1
247 1989 1
247 2287 1
248 107 1
248 267 1
248 494 1
248 593 1
248 956 1
248 1151 1
248 1199 1
248 1484 1
248 1613 1
248 1896 1
248 2054 1
248 2288 1
249 108 1
249 268 1
249 559 1
249 594 1
249 957 1
249 1152 1
249 1200 1
249 1485 1
249 1614 1
249 1897 1
249 1927 1
249 2289 1
250 109 1
250 269 1
250 432 1
250 595 1
250 958 1
250 961 1
250 1201 1
250 1486 1
250 1615 1
250 1898 1
250 1992 1
250 2290 1
251 110 1
251 270 1
251 497 1
251 596 1
251 959 1
251 962 1
251 1202 1
251 1487 1
251 1616 1
251 1899 1
251 2057 1
251 2291 1
252 111 1
252 271 1
252 562 1
252 597 1
252 960 1
252 963 1
252 1203 1
252 1488 1
252 1617 1
252 1900 1
252 1930 1
252 2292 1
253 112 1
253 272 1
253 435 1
253 598 1
253 769 1
253 964 1
253 1204 1
253 1489 1
253 1618 1
253 1901 1
253 1995 1
253 2293 1
254 113 1
254 273 1
254 500 1
254 599 1
254 770 1
254 965 1
254 1205 1
254 1490 1
254 1619 1
254 1902 1
254 2060 1
254 2294 1
255 114 1
255 274 1
255 565 1
255 600 1
255 771 1
255 966 1
255 1206 1
255 1491 1
255 1620 1
255 1903 1
255 1933 1
255 2295 1
256 115 1
256 275 1
256 438 1
256 601 1
256 772 1
256 967 1
256 1207 1
256 1492 1
256 1621 1
256 1904 1
256 1998 1
256 2296 1
257 116 1
257 276 1
257 503 1
257 602 1
257 773 1
257 968 1
257 1208 1
257 1493 1
257 1622 1
257 1905 1
257 2063 1
257 2297 1
258 117 1
258 277 1
258 568 1
258 603 1
258 774 1
258 969 1
258 1209 1
258 1494 1
258 1623 1
258 1906 1
258 1936 1
258 2298 1
259 118 1
259 278 1
259 441 1
259 604 1
259 775 1
259 970 1
259 1210 1
259 1495 1
259 1624 1
259 1907 1
259 2001 1
259 2299 1
260 119 1
260 279 1
260 506 1
260 605 1
260 776 1
260 971 1
260 1211 1
260 1496 1
260 1625 1
260 1908 1
260 2066 1
260 2300 1
261 120 1
261 280 1
261 571 1
261 606 1
261 777 1
261 972 1
261 1212 1
261 1497 1
261 1626 1
261 1909 1
261 1939 1
261 2301 1
262 121 1
262 281 1
262 444 1
262 607 1
262 778 1
262 973 1
262 1213 1
262 1498 1
262 1627 1
262 1910 1
262 2004 1
262 2302 1
263 122 1
263 282 1
263 509 1
263 608 1
263 779 1
263 974 1
263 1214 1
263 1499 1
263 1628 1
263 1911 1
263 2069 1
263 2303 1
264 123 1
264 283 1
264 574 1
264 609 1
264 780 1
264 975 1
264 1215 1
264 1500 1
264 1629 1
264 1912 1
264 1942 1
264 2304 1
265 124 1
265 284 1
265 447 1
265 610 1
265 781 1
265 976 1
265 1216 1
265 1501 1
265 1630 1
265 1913 1
265 2007 1
265 2113 1
266 125 1
266 285 1
266 512 1
266 611 1
266 782 1
266 977 1
266 1217 1
266 1502 1
266 1631 1
266 1914 1
266 2072 1
266 2114 1
267 126 1
267 286 1
267 385 1
267 612 1
267 783 1
267 978 1
267 1218 1
267 1503 1
267 1632 1
267 1915 1
267 1945 1
267 2115 1
268 127 1
268 287 1
268 450 1
268 613 1
268 784 1
268 979 1
268 1219 1
268 1504 1
268 1633 1
268 1916 1
268 2010 1
268 2116 1
269 128 1
269 288 1
269 515 1
269 614 1
269 785 1
269 980 1
269 1220 1
269 1505 1
269 1634 1
269 1917 1
269 2075 1
269 2117 1
270 129 1
270 289 1
270 388 1
270 615 1
270 786 1
270 981 1
270 1221 1
270 1506 1
270 1635 1
270 1918 1
270 1948 1
270 2118 1
271 130 1
271 290 1
271 453 1
271 616 1
271 787 1
271 982 1
271 1222 1
271 1507 1
271 1636 1
271 1919 1
271 2013 1
271 2119 1
272 131 1
272 291 1
272 518 1
272 617 1
272 788 1
272 983 1
272 1223 1
272 1508 1
272 1637 1
272 1920 1
272 2078 1
272 2120 1
273 132 1
273 292 1
273 391 1
273 618 1
273 789 1
273 984 1
273 1224 1
273 1509 1
273 1638 1
273 1729 1
273 1951 1
273 2121 1
274 133 1
274 293 1
274 456 1
274 619 1
274 790 1
274 985 1
274 1225 1
274 1510 1
274 1639 1
274 1730 1
274 2016 1
274 2122 1
275 134 1
275 294 1
275 521 1
275 620 1
275 791 1
275 986 1
275 1226 1
275 1511 1
275 1640 1
275 1731 1
275 2081 1
275 2123 1
276 135 1
276 295 1
276 394 1
276 621 1
276 792 1
276 987 1
276 1227 1
276 1512 1
276 1641 1
276 1732 1
276 1954 1
276 2124 1
277 136 1
277 296 1
277 459 1
277 622 1
277 793 1
277 988 1
277 1228 1
277 1513 1
277 1642 1
277 1733 1
277 2019 1
277 2125 1
278 137 1
278 297 1
278 524 1
278 623 1
278 794 1
278 989 1
278 1229 1
278 1514 1
278 1643 1
278 1734 1
278 2084 1
278 2126 1
279 138 1
279 298 1
279 397 1
279 624 1
279 795 1
279 990 1
279 1230 1
279 1515 1
279 1644 1
279 1735 1
279 1957 1
279 2127 1
280 139 1
280 299 1
280 462 1
280 625 1
280 796 1
280 991 1
280 1231 1
280 1516 1
280 1645 1
280 1736 1
280 2022 1
280 2128 1
281 140 1
281 300 1
281 527 1
281 626 1
281 797 1
281 992 1
281 1232 1
281 1517 1
281 1646 1
281 1737 1
281 2087 1
281 2129 1
282 141 1
282 301 1
282 400 1
282 627 1
282 798 1
282 993 1
282 1233 1
282 1518 1
282 1647 1
282 1738 1
282 1960 1
282 2130 1
283 142 1
283 302 1
283 465 1
283 628 1
283 799 1
283 994 1
283 1234 1
283 1519 1
283 1648 1
283 1739 1
283 2025 1
283 2131 1
284 143 1
284 303 1
284 530 1
284 629 1
284 800 1
284 995 1
284 1235 1
284 1520 1
284 1649 1
284 1740 1
284 2090 1
284 2132 1
285 144 1
285 304 1
285 403 1
285 630 1
285 801 1
285 996 1
285 1236 1
285 1521 1
285 1650 1
285 1741 1
285 1963 1
285 2133 1
286 145 1
286 305 1
286 468 1
286 631 1
286 802 1
286 997 1
286 1237 1
286 1522 1
286 1651 1
286 1742 1
286 2028 1
286 2134 1
287 146 1
287 306 1
287 533 1
287 632 1
287 803 1
287 998 1
287 1238 1
287 1523 1
287 1652 1
287 1743 1
287 2093 1
287 2135 1
288 147 1
288 307 1
288 406 1
288 633 1
288 804 1
288 999 1
288 1239 1
288 1524 1
288 1653 1
288 1744 1
288 1966 1
288 2136 1
289 148 1
289 308 1
289 471 1
289 634 1
289 805 1
289 1000 1
289 1240 1
289 1525 1
289 1654 1
289 1745 1
289 2031 1
289 2137 1
290 149 1
290 309 1
290 536 1
290 635 1
290 806 1
290 1001 1
290 1241 1
290 1526 1
290 1655 1
290 1746 1
290 2096 1
290 2138 1
291 150 1
291 310 1
291 409 1
291 636 1
291 807 1
291 1002 1
291 1242 1
291 1527 1
291 1656 1
291 1747 1
291 1969 1
291 2139 1
292 151 1
292 311 1
292 474 1
292 637 1
292 808 1
292 1003 1
292 1243 1
292 1528 1
292 1657 1
292 1748 1
292 2034 1
292 2140 1
293 152 1
293 312 1
293 539 1
293 638 1
293 809 1
293 1004 1
293 1244 1
293 1529 1
293 1658 1
293 1749 1
293 2099 1
293 2141 1
294 153 1
294 313 1
294 412 1
294 639 1
294 810 1
294 1005 1
294 1245 1
294 1530 1
294 1659 1
294 1750 1
294 1972 1
294 2142 1
295 154 1
295 314 1
295 477 1
295 640 1
295 811 1
295 1006 1
295 1246 1
295 1531 1
295 1660 1
295 1751 1
295 2037 1
295 2143 1
296 155 1
296 315 1
296 542 1
296 641 1
296 812 1
296 1007 1
296 1247 1
296 1532 1
296 1661 1
296 1752 1
296 2102 1
296 2144 1
297 156 1
297 316 1
297 415 1
297 642 1
297 813 1
297 1008 1
297 1248 1
297 1533 1
297 1662 1
297 1753 1
297 1975 1
297 2145 1
298 157 1
298 317 1
298 480 1
298 643 1
298 814 1
298 1009 1
298 1249 1
298 1534 1
298 1663 1
298 1754 1
298 2040 1
298 2146 1
299 158 1
299 318 1
299 545 1
299 644 1
299 815 1
299 1010 1
299 1250 1
299 1535 1
299 1664 1
299 1755 1
299 2105 1
299 2147 1
300 159 1
300 319 1
300 418 1
300 645 1
300 816 1
300 1011 1
300 1251 1
300 1536 1
300 1665 1
300 1756 1
300 1978 1
300 2148 1
301 160 1
301 320 1
301 483 1
301 646 1
301 817 1
301 1012 1
301 1252 1
301 1345 1
301 1666 1
301 1757 1
301 2043 1
301 2149 1
302 161 1
302 321 1
302 548 1
302 647 1
302 818 1
302 1013 1
302 1253 1
302 1346 1
302 1667 1
302 1758 1
302 2108 1
302 2150 1
303 162 1
303 322 1
303 421 1
303 648 1
303 819 1
303 1014 1
303 1254 1
303 1347 1
303 1668 1
303 1759 1
303 1981 1
303 2151 1
304 163 1
304 323 1
304 486 1
304 649 1
304 820 1
304 1015 1
304 1255 1
304 1348 1
304 1669 1
304 1760 1
304 2046 1
304 2152 1
305 164 1
305 324 1
305 551 1
305 650 1
305 821 1
305 1016 1
305 1256 1
305 1349 1
305 1670 1
305 1761 1
305 2111 1
305 2153 1
306 165 1
306 325 1
306 424 1
306 651 1
306 822 1
306 1017 1
306 1257 1
306 1350 1
306 1671 1
306 1762 1
306 1984 1
306 2154 1
307 166 1
307 326 1
307 489 1
307 652 1
307 823 1
307 1018 1
307 1258 1
307 1351 1
307 1672 1
307 1763 1
307 2049 1
307 2155 1
308 167 1
308 327 1
308 554 1
308 653 1
308 824 1
308 1019 1
308 1259 1
308 1352 1
308 1673 1
308 1764 1
308 1922 1
308 2156 1
309 168 1
309 328 1
309 427 1
309 654 1
309 825 1
309 1020 1
309 1260 1
309 1353 1
309 1674 1
309 1765 1
309 1987 1
309 2157 1
310 169 1
310 329 1
310 492 1
310 655 1
310 826 1
310 1021 1
310 1261 1
310 1354 1
310 1675 1
310 1766 1
310 2052 1
310 2158 1
311 170 1
311 330 1
311 557 1
311 656 1
311 827 1
311 1022 1
311 1262 1
311 1355 1
311 1676 1
311 1767 1
311 1925 1
311 2159 1
312 171 1
312 331 1
312 430 1
312 657 1
312 828 1
312 1023 1
312 1263 1
312 1356 1
312 1677 1
312 1768 1
312 1990 1
312 2160 1
313 172 1
313 332 1
313 495 1
313 658 1
313 829 1
313 1024 1
313 1264 1
313 1357 1
313 1678 1
313 1769 1
313 2055 1
313 2161 1
314 173 1
314 333 1
314 560 1
314 659 1
314 830 1
314 1025 1
314 1265 1
314 1358 1
314 1679 1
314 1770 1
314 1928 1
314 2162 1
315 174 1
315 334 1
315 433 1
315 660 1
315 831 1
315 1026 1
315 1266 1
315 1359 1
315 1680 1
315 1771 1
315 1993 1
315 2163 1
316 175 1
316 335 1
316 498 1
316 661 1
316 832 1
316 1027 1
316 1267 1
316 1360 1
316 1681 1
316 1772 1
316 2058 1
316 2164 1
317 176 1
317 336 1
317 563 1
317 662 1
317 833 1
317 1028 1
317 1268 1
317 1361 1
317 1682 1
317 1773 1
317 1931 1
317 2165 1
318 177 1
318 337 1
318 436 1
318 663 1
318 834 1
318 1029 1
318 1269 1
318 1362 1
318 1683 1
318 1774 1
318 1996 1
318 2166 1
319 178 1
319 338 1
319 501 1
319 664 1
319 835 1
319 1030 1
319 1270 1
319 1363 1
319 1684 1
319 1775 1
319 2061 1
319 2167 1
320 179 1
320 339 1
320 566 1
320 665 1
320 836 1
320 1031 1
320 1271 1
320 1364 1
320 1685 1
320 1776 1
320 1934 1
320 2168 1
321 180 1
321 340 1
321 439 1
321 666 1
321 837 1
321 1032 1
321 1272 1
321 1365 1
321 1686 1
321 1777 1
321 1999 1
321 2169 1
322 181 1
322 341 1
322 504 1
322 667 1
322 838 1
322 1033 1
322 1273 1
322 1366 1
322 1687 1
322 1778 1
322 2064 1
322 2170 1
323 182 1
323 342 1
323 569 1
323 668 1
323 839 1
323 1034 1
323 1274 1
323 1367 1
323 1688 1
323 1779 1
323 1937 1
323 2171 1
324 183 1
324 343 1
324 442 1
324 669 1
324 840 1
324 1035 1
324 1275 1
324 1368 1
324 1689 1
324 1780 1
324 2002 1
324 2172 1
325 184 1
325 344 1
325 507 1
325 670 1
325 841 1
325 1036 1
325 1276 1
325 1369 1
325 1690 1
325 1781 1
325 2067 1
325 2173 1
326 185 1
326 345 1
326 572 1
326 671 1
326 842 1
326 1037 1
326 1277 1
326 1370 1
326 1691 1
326 1782 1
326 1940 1
326 2174 1
327 186 1
327 346 1
327 445 1
327 672 1
327 843 1
327 1038 1
327 1278 1
327 1371 1
327 1692 1
327 1783 1
327 2005 1
327 2175 1
328 187 1
328 347 1
328 510 1
328 673 1
328 844 1
328 1039 1
328 1279 1
328 1372 1
328 1693 1
328 1784 1
328 2070 1
328 2176 1
329 188 1
329 348 1
329 575 1
329 674 1
329 845 1
329 1040 1
329 1280 1
329 1373 1
329 1694 1
329 1785 1
329 1943 1
329 2177 1
330 189 1
330 349 1
330 448 1
330 675 1
330 846 1
330 1041 1
330 1281 1
330 1374 1
330 1695 1
330 1786 1
330 2008 1
330 2178 1
331 190 1
331 350 1
331 513 1
331 676 1
331 847 1
331 1042 1
331 1282 1
331 1375 1
331 1696 1
331 1787 1
331 2073 1
331 2179 1
332 191 1
332 351 1
332 386 1
332 677 1
332 848 1
332 1043 1
332 1283 1
332 1376 1
332 1697 1
332 1788 1
332 1946 1
332 2180 1
333 192 1
333 352 1
333 451 1
333 678 1
333 849 1
333 1044 1
333 1284 1
333 1377 1
333 1698 1
333 1789 1
333 2011 1
333 2181 1
334 1 1
334 353 1
334 516 1
334 679 1
334 850 1
334 1045 1
334 1285 1
334 1378 1
334 1699 1
334 1790 1
334 2076 1
334 2182 1
335 2 1
335 354 1
335 389 1
335 680 1
335 851 1
335 1046 1
335 1286 1
335 1379 1
335 1700 1
335 1791 1
335 1949 1
335 2183 1
336 3 1
336 355 1
336 454 1
336 681 1
336 852 1
336 1047 1
336 1287 1
336 1380 1
336 1701 1
336 1792 1
336 2014 1
336 2184 1
337 4 1
337 356 1
337 519 1
337 682 1
337 853 1
337 1048 1
337 1288 1
337 1381 1
337 1702 1
337 1793 1
337 2079 1
337 2185 1
338 5 1
338 357 1
338 392 1
338 683 1
338 854 1
338 1049 1
338 1289 1
338 1382 1
338 1703 1
338 1794 1
338 1952 1
338 2186 1
339 6 1
339 358 1
339 457 1
339 684 1
339 855 1
339 1050 1
339 1290 1
339 1383 1
339 1704 1
339 1795 1
339 2017 1
339 2187 1
340 7 1
340 359 1
340 522 1
340 685 1
340 856 1
340 1051 1
340 1291 1
340 1384 1
340 1705 1
340 1796 1
340 2082 1
340 2188 1
341 8 1
341 360 1
341 395 1
341 686 1
341 857 1
341 1052 1
341 1292 1
341 1385 1
341 1706 1
341 1797 1
341 1955 1
341 2189 1
342 9 1
342 361 1
342 460 1
342 687 1
342 858 1
342 1053 1
342 1293 1
342 1386 1
342 1707 1
342 1798 1
342 2020 1
342 2190 1
343 10 1
343 362 1
343 525 1
343 688 1
343 859 1
343 1054 1
343 1294 1
343 1387 1
343 1708 1
343 1799 1
343 2085 1
343 2191 1
344 11 1
344 363 1
344 398 1
344 689 1
344 860 1
344 1055 1
344 1295 1
344 1388 1
344 1709 1
344 1800 1
344 1958 1
344 2192 1
345 12 1
345 364 1
345 463 1
345 690 1
345 861 1
345 1056 1
345 1296 1
345 1389 1
345 1710 1
345 1801 1
345 2023 1
345 2193 1
346 13 1
346 365 1
346 528 1
346 691 1
346 862 1
346 1057 1
346 1297 1
346 1390 1
346 1711 1
346 1802 1
346 2088 1
346 2194 1
347 14 1
347 366 1
347 401 1
347 692 1
347 863 1
347 1058 1
347 1298 1
347 1391 1
347 1712 1
347 1803 1
347 1961 1
347 2195 1
348 15 1
348 367 1
348 466 1
348 693 1
348 864 1
348 1059 1
348 1299 1
348 1392 1
348 1713 1
348 1804 1
348 2026 1
348 2196 1
349 16 1
349 368 1
349 531 1
349 694 1
349 865 1
349 1060 1
349 1300 1
349 1393 1
349 1714 1
349 1805 1
349 2091 1
349 2197 1
350 17 1
350 369 1
350 404 1
350 695 1
350 866 1
350 1061 1
350 1301 1
350 1394 1
350 1715 1
350 1806 1
350 1964 1
350 2198 1
351 18 1
351 370 1
351 469 1
351 696 1
351 867 1
351 1062 1
351 1302 1
351 1395 1
351 1716 1
351 1807 1
351 2029 1
351 2199 1
352 19 1
352 371 1
352 534 1
352 697 1
352 868 1
352 1063 1
352 1303 1
352 1396 1
352 1717 1
352 1808 1
352 2094 1
352 2200 1
353 20 1
353 372 1
353 407 1
353 698 1
353 869 1
353 1064 1
353 1304 1
353 1397 1
353 1718 1
353 1809 1
353 1967 1
353 2201 1
354 21 1
354 373 1
354 472 1
354 699 1
354 870 1
354 1065 1
354 1305 1
354 1398 1
354 1719 1
354 1810 1
354 2032 1
354 2202 1
355 22 1
355 374 1
355 537 1
355 700 1
355 871 1
355 1066 1
355 1306 1
355 1399 1
355 1720 1
355 1811 1
355 2097 1
355 2203 1
356 23 1
356 375 1
356 410 1
356 701 1
356 872 1
356 1067 1
356 1307 1
356 1400 1
356 1721 1
356 1812 1
356 1970 1
356 2204 1
357 24 1
357 376 1
357 475 1
357 702 1
357 873 1
357 1068 1
357 1308 1
357 1401 1
357 1722 1
357 1813 1
357 2035 1
357 2205 1
358 25 1
358 377 1
358 540 1
358 703 1
358 874 1
358 1069 1
358 1309 1
358 1402 1
358 1723 1
358 1814 1
358 2100 1
358 2206 1
359 26 1
359 378 1
359 413 1
359 704 1
359 875 1
359 1070 1
359 1310 1
359 1403 1
359 1724 1
359 1815 1
359 1973 1
359 2207 1
360 27 1
360 379 1
360 478 1
360 705 1
360 876 1
360 1071 1
360 1311 1
360 1404 1
360 1725 1
360 1816 1
360 2038 1
360 2208 1
361 28 1
361 380 1
361 543 1
361 706 1
361 877 1
361 1072 1
361 1312 1
361 1405 1
361 1726 1
361 1817 1
361 2103 1
361 2209 1
362 29 1
362 381 1
362 416 1
362 707 1
362 878 1
362 1073 1
362 1313 1
362 1406 1
362 1727 1
362 1818 1
362 1976 1
362 2210 1
363 30 1
363 382 1
363 481 1
363 708 1
363 879 1
363 1074 1
363 1314 1
363 1407 1
363 1728 1
363 1819 1
363 2041 1
363 2211 1
364 31 1
364 383 1
364 546 1
364 709 1
364 880 1
364 1075 1
364 1315 1
364 1408 1
364 1537 1
364 1820 1
364 2106 1
364 2212 1
365 32 1
365 384 1
365 419 1
365 710 1
365 881 1
365 1076 1
365 1316 1
365 1409 1
365 1538 1
365 1821 1
365 1979 1
365 2213 1
366 33 1
366 193 1
366 484 1
366 711 1
366 882 1
366 1077 1
366 1317 1
366 1410 1
366 1539 1
366 1822 1
366 2044 1
366 2214 1
367 34 1
367 194 1
367 549 1
367 712 1
367 883 1
367 1078 1
367 1318 1
367 1411 1
367 1540 1
367 1823 1
367 2109 1
367 2215 1
368 35 1
368 195 1
368 422 1
368 713 1
368 884 1
368 1079 1
368 1319 1
368 1412 1
368 1541 1
368 1824 1
368 1982 1
368 2216 1
369 36 1
369 196 1
369 487 1
369 714 1
369 885 1
369 1080 1
369 1320 1
369 1413 1
369 1542 1
369 1825 1
369 2047 1
369 2217 1
370 37 1
370 197 1
370 552 1
370 715 1
370 886 1
370 1081 1
370 1321 1
370 1414 1
370 1543 1
370 1826 1
370 2112 1
370 2218 1
371 38 1
371 198 1
371 425 1
371 716 1
371 887 1
371 1082 1
371 1322 1
371 1415 1
371 1544 1
371 1827 1
371 1985 1
371 2219 1
372 39 1
372 199 1
372 490 1
372 717 1
372 888 1
372 1083 1
372 1323 1
372 1416 1
372 1545 1
372 1828 1
372 2050 1
372 2220 1
373 40 1
373 200 1
373 555 1
373 718 1
373 889 1
373 1084 1
373 1324 1
373 1417 1
373 1546 1
373 1829 1
373 1923 1
373 2221 1
374 41 1
374 201 1
374 428 1
374 719 1
374 890 1
374 1085 1
374 1325 1
374 1418 1
374 1547 1
374 1830 1
374 1988 1
374 2222 1
375 42 1
375 202 1
375 493 1
375 720 1
375 891 1
375 1086 1
375 1326 1
375 1419 1
375 1548 1
375 1831 1
375 2053 1
375 2223 1
376 43 1
376 203 1
376 558 1
376 721 1
376 892 1
376 1087 1
376 1327 1
376 1420 1
376 1549 1
376 1832 1
376 1926 1
376 2224 1
377 44 1
377 204 1
377 431 1
377 722 1
377 893 1
377 1088 1
377 1328 1
377 1421 1
377 1550 1
377 1833 1
377 1991 1
377 2225 1
378 45 1
378 205 1
378 496 1
378 723 1
378 894 1
378 1089 1
378 1329 1
378 1422 1
378 1551 1
378 1834 1
378 2056 1
378 2226 1
379 46 1
379 206 1
379 561 1
379 724 1
379 895 1
379 1090 1
379 1330 1
379 1423 1
379 1552 1
379 1835 1
379 1929 1
379 2227 1
380 47 1
380 207 1
380 434 1
380 725 1
380 896 1
380 1091 1
380 1331 1
380 1424 1
380 1553 1
380 1836 1
380 1994 1
380 2228 1
381 48 1
381 208 1
381 499 1
381 726 1
381 897 1
381 1092 1
381 1332 1
381 1425 1
381 1554 1
381 1837 1
381 2059 1
381 2229 1
382 49 1
382 209 1
382 564 1
382 727 1
382 898 1
382 1093 1
382 1333 1
382 1426 1
382 1555 1
382 1838 1
382 1932 1
382 2230 1
383 50 1
383 210 1
383 437 1
383 728 1
383 899 1
383 1094 1
383 1334 1
383 1427 1
383 1556 1
383 1839 1
383 1997 1
383 2231 1
384 51 1
384 211 1
384 502 1
384 729 1
384 900 1
384 1095 1
384 1335 1
384 1428 1
384 1557 1
384 1840 1
384 2062 1
384 2232 1
385 136 1
385 244 1
385 404 1
385 759 1
385 922 1
385 1093 1
385 1273 1
385 1528 1
385 1621 1
385 1750 1
385 2033 1
385 2127 1
386 137 1
386 245 1
386 405 1
386 632 1
386 923 1
386 1094 1
386 1274 1
386 1529 1
386 1622 1
386 1751 1
386 2034 1
386 2192 1
387 138 1
387 246 1
387 406 1
387 697 1
387 924 1
387 1095 1
387 1275 1
387 1530 1
387 1623 1
387 1752 1
387 2035 1
387 2257 1
388 139 1
388 247 1
388 407 1
388 762 1
388 925 1
388 1096 1
388 1276 1
388 1531 1
388 1624 1
388 1753 1
388 2036 1
388 2130 1
389 140 1
389 248 1
389 408 1
389 635 1
389 926 1
389 1097 1
389 1277 1
389 1532 1
389 1625 1
389 1754 1
389 2037 1
389 2195 1
390 141 1
390 249 1
390 409 1
390 700 1
390 927 1
390 1098 1
390 1278 1
390 1533 1
390 1626 1
390 1755 1
390 2038 1
390 2260 1
391 142 1
391 250 1
391 410 1
391 765 1
391 928 1
391 1099 1
391 1279 1
391 1534 1
391 1627 1
391 1756 1
391 2039 1
391 2133 1
392 143 1
392 251 1
392 411 1
392 638 1
392 929 1
392 1100 1
392 1280 1
392 1535 1
392 1628 1
392 1757 1
392 2040 1
392 2198 1
393 144 1
393 252 1
393 412 1
393 703 1
393 930 1
393 1101 1
393 1281 1
393 1536 1
393 1629 1
393 1758 1
393 2041 1
393 2263 1
394 145 1
394 253 1
394 413 1
394 768 1
394 931 1
394 1102 1
394 1282 1
394 1345 1
394 1630 1
394 1759 1
394 2042 1
394 2136 1
395 146 1
395 254 1
395 414 1
395 641 1
395 932 1
395 1103 1
395 1283 1
395 1346 1
395 1631 1
395 1760 1
395 2043 1
395 2201 1
396 147 1
396 255 1
396 415 1
396 706 1
396 933 1
396 1104 1
396 1284 1
396 1347 1
396 1632 1
396 1761 1
396 2044 1
396 2266 1
397 148 1
397 256 1
397 416 1
397 579 1
397 934 1
397 1105 1
397 1285 1
397 1348 1
397 1633 1
397 1762 1
397 2045 1
397 2139 1
398 149 1
398 257 1
398 417 1
398 644 1
398 935 1
398 1106 1
398 1286 1
398 1349 1
398 1634 1
398 1763 1
398 2046 1
398 2204 1
399 150 1
399 258 1
399 418 1
399 709 1
399 936 1
399 1107 1
399 1287 1
399 1350 1
399 1635 1
399 1764 1
399 2047 1
399 2269 1
400 151 1
400 259 1
400 419 1
400 582 1
400 937 1
400 1108 1
400 1288 1
400 1351 1
400 1636 1
400 1765 1
400 2048 1
400 2142 1
401 152 1
401 260 1
401 420 1
401 647 1
401 938 1
401 1109 1
401 1289 1
401 1352 1
401 1637 1
401 1766 1
401 2049 1
401 2207 1
402 153 1
402 261 1
402 421 1
402 712 1
402 939 1
402 1110 1
402 1290 1
402 1353 1
402 1638 1
402 1767 1
402 2050 1
402 2272 1
403 154 1
403 262 1
403 422 1
403 585 1
403 940 1
403 1111 1
403 1291 1
403 1354 1
403 1639 1
403 1768 1
403 2051 1
403 2145 1
404 155 1
404 263 1
404 423 1
404 650 1
404 941 1
404 1112 1
404 1292 1
404 1355 1
404 1640 1
404 1769 1
404 2052 1
404 2210 1
405 156 1
405 264 1
405 424 1
405 715 1
405 942 1
405 1113 1
405 1293 1
405 1356 1
405 1641 1
405 1770 1
405 2053 1
405 2275 1
406 157 1
406 265 1
406 425 1
406 588 1
406 943 1
406 1114 1
406 1294 1
406 1357 1
406 1642 1
406 1771 1
406 2054 1
406 2148 1
407 158 1
407 266 1
407 426 1
407 653 1
407 944 1
407 1115 1
407 1295 1
407 1358 1
407 1643 1
407 1772 1
407 2055 1
407 2213 1
408 159 1
408 267 1
408 427 1
408 718 1
408 945 1
408 1116 1
408 1296 1
408 1359 1
408 1644 1
408 1773 1
408 2056 1
408 2278 1
409 160 1
409 268 1
409 428 1
409 591 1
409 946 1
409 1117 1
409 1297 1
409 1360 1
409 1645 1
409 1774 1
409 2057 1
409 2151 1
410 161 1
410 269 1
410 429 1
410 656 1
410 947 1
410 1118 1
410 1298 1
410 1361 1
410 1646 1
410 1775 1
410 2058 1
410 2216 1
411 162 1
411 270 1
411 430 1
411 721 1
411 948 1
411 1119 1
411 1299 1
411 1362 1
411 1647 1
411 1776 1
411 2059 1
411 2281 1
412 163 1
412 271 1
412 431 1
412 594 1
412 949 1
412 1120 1
412 1300 1
412 1363 1
412 1648 1
412 1777 1
412 2060 1
412 2154 1
413 164 1
413 272 1
413 432 1
413 659 1
413 950 1
413 1121 1
413 1301 1
413 1364 1
413 1649 1
413 1778 1
413 2061 1
413 2219 1
414 165 1
414 273 1
414 433 1
414 724 1
414 951 1
414 1122 1
414 1302 1
414 1365 1
414 1650 1
414 1779 1
414 2062 1
414 2284 1
415 166 1
415 274 1
415 434 1
415 597 1
415 952 1
415 1123 1
415 1303 1
415 1366 1
415 1651 1
415 1780 1
415 2063 1
415 2157 1
416 167 1
416 275 1
416 435 1
416 662 1
416 953 1
416 1124 1
416 1304 1
416 1367 1
416 1652 1
416 1781 1
416 2064 1
416 2222 1
417 168 1
417 276 1
417 436 1
417 727 1
417 954 1
417 1125 1
417 1305 1
417 1368 1
417 1653 1
417 1782 1
417 2065 1
417 2287 1
418 169 1
418 277 1
418 437 1
418 600 1
418 955 1
418 1126 1
418 1306 1
418 1369 1
418 1654 1
418 1783 1
418 2066 1
418 2160 1
419 170 1
419 278 1
419 438 1
419 665 1
419 956 1
419 1127 1
419 1307 1
419 1370 1
419 1655 1
419 1784 1
419 2067 1
419 2225 1
420 171 1
420 279 1
420 439 1
420 730 1
420 957 1
420 1128 1
420 1308 1
420 1371 1
420 1656 1
420 1785 1
420 2068 1
420 2290 1
421 172 1
421 280 1
421 440 1
421 603 1
421 958 1
421 1129 1
421 1309 1
421 1372 1
421 1657 1
421 1786 1
421 2069 1
421 2163 1
422 173 1
422 281 1
422 441 1
422 668 1
422 959 1
422 1130 1
422 1310 1
422 1373 1
422 1658 1
422 1787 1
422 2070 1
422 2228 1
423 174 1
423 282 1
423 442 1
423 733 1
423 960 1
423 1131 1
423 1311 1
423 1374 1
423 1659 1
423 1788 1
423 2071 1
423 2293 1
424 175 1
424 283 1
424 443 1
424 606 1
424 769 1
424 1132 1
424 1312 1
424 1375 1
424 1660 1
424 1789 1
424 2072 1
424 2166 1
425 176 1
425 284 1
425 444 1
425 671 1
425 770 1
425 1133 1
425 1313 1
425 1376 1
425 1661 1
425 1790 1
425 2073 1
425 2231 1
426 177 1
426 285 1
426 445 1
426 736 1
426 771 1
426 1134 1
426 1314 1
426 1377 1
426 1662 1
426 1791 1
426 2074 1
426 2296 1
427 178 1
427 286 1
427 446 1
427 609 1
427 772 1
427 1135 1
427 1315 1
427 1378 1
427 1663 1
427 1792 1
427 2075 1
427 2169 1
428 179 1
428 287 1
428 447 1
428 674 1
428 773 1
428 1136 1
428 1316 1
428 1379 1
428 1664 1
428 1793 1
428 2076 1
428 2234 1
429 180 1
429 288 1
429 448 1
429 739 1
429 774 1
429 1137 1
429 1317 1
429 1380 1
429 1665 1
429 1794 1
429 2077 1
429 2299 1
430 181 1
430 289 1
430 449 1
430 612 1
430 775 1
430 1138 1
430 1318 1
430 1381 1
430 1666 1
430 1795 1
430 2078 1
430 2172 1
431 182 1
431 290 1
431 450 1
431 677 1
431 776 1
431 1139 1
431 1319 1
431 1382 1
431 1667 1
431 1796 1
431 2079 1
431 2237 1
432 183 1
432 291 1
432 451 1
432 742 1
432 777 1
432 1140 1
432 1320 1
432 1383 1
432 1668 1
432 1797 1
432 2080 1
432 2302 1
433 184 1
433 292 1
433 452 1
433 615 1
433 778 1
433 1141 1
433 1321 1
433 1384 1
433 1669 1
433 1798 1
433 2081 1
433 2175 1
434 185 1
434 293 1
434 453 1
434 680 1
434 779 1
434 1142 1
434 1322 1
434 1385 1
434 1670 1
434 1799 1
434 2082 1
434 2240 1
435 186 1
435 294 1
435 454 1
435 745 1
435 780 1
435 1143 1
435 1323 1
435 1386 1
435 1671 1
435 1800 1
435 2083 1
435 2113 1
436 187 1
436 295 1
436 455 1
436 618 1
436 781 1
436 1144 1
436 1324 1
436 1387 1
436 1672 1
436 1801 1
436 2084 1
436 2178 1
437 188 1
437 296 1
437 456 1
437 683 1
437 782 1
437 1145 1
437 1325 1
437 1388 1
437 1673 1
437 1802 1
437 2085 1
437 2243 1
438 189 1
438 297 1
438 457 1
438 748 1
438 783 1
438 1146 1
438 1326 1
438 1389 1
438 1674 1
438 1803 1
438 2086 1
438 2116 1
439 190 1
439 298 1
439 458 1
439 621 1
439 784 1
439 1147 1
439 1327 1
439 1390 1
439 1675 1
439 1804 1
439 2087 1
439 2181 1
440 191 1
440 299 1
440 459 1
440 686 1
440 785 1
440 1148 1
440 1328 1
440 1391 1
440 1676 1
440 1805 1
440 2088 1
440 2246 1
441 192 1
441 300 1
441 460 1
441 751 1
441 786 1
441 1149 1
441 1329 1
441 1392 1
441 1677 1
441 1806 1
441 2089 1
441 2119 1
442 1 1
442 301 1
442 461 1
442 624 1
442 787 1
442 1150 1
442 1330 1
442 1393 1
442 1678 1
442 1807 1
442 2090 1
442 2184 1
443 2 1
443 302 1
443 462 1
443 689 1
443 788 1
443 1151 1
443 1331 1
443 1394 1
443 1679 1
443 1808 1
443 2091 1
443 2249 1
444 3 1
444 303 1
444 463 1
444 754 1
444 789 1
444 1152 1
444 1332 1
444 1395 1
444 1680 1
444 1809 1
444 2092 1
444 2122 1
445 4 1
445 304 1
445 464 1
445 627 1
445 790 1
445 961 1
445 1333 1
445 1396 1
445 1681 1
445 1810 1
445 2093 1
445 2187 1
446 5 1
446 305 1
446 465 1
446 692 1
446 791 1
446 962 1
446 1334 1
446 1397 1
446 1682 1
446 1811 1
446 2094 1
446 2252 1
447 6 1
447 306 1
447 466 1
447 757 1
447 792 1
447 963 1
447 1335 1
447 1398 1
447 1683 1
447 1812 1
447 2095 1
447 2125 1
448 7 1
448 307 1
448 467 1
448 630 1
448 793 1
448 964 1
448 1336 1
448 1399 1
448 1684 1
448 1813 1
448 2096 1
448 2190 1
449 8 1
449 308 1
449 468 1
449 695 1
449 794 1
449 965 1
449 1337 1
449 1400 1
449 1685 1
449 1814 1
449 2097 1
449 2255 1
450 9 1
450 309 1
450 469 1
450 760 1
450 795 1
450 966 1
450 1338 1
450 1401 1
450 1686 1
450 1815 1
450 2098 1
450 2128 1
451 10 1
451 310 1
451 470 1
451 633 1
451 796 1
451 967 1
451 1339 1
451 1402 1
451 1687 1
451 1816 1
451 2099 1
451 2193 1
452 11 1
452 311 1
452 471 1
452 698 1
452 797 1
452 968 1
452 1340 1
452 1403 1
452 1688 1
452 1817 1
452 2100 1
452 2258 1
453 12 1
453 312 1
453 472 1
453 763 1
453 798 1
453 969 1
453 1341 1
453 1404 1
453 1689 1
453 1818 1
453 2101 1
453 2131 1
454 13 1
454 313 1
454 473 1
454 636 1
454 799 1
454 970 1
454 1342 1
454 1405 1
454 1690 1
454 1819 1
454 2102 1
454 2196 1
455 14 1
455 314 1
455 474 1
455 701 1
455 800 1
455 971 1
455 1343 1
455 1406 1
455 1691 1
455 1820 1
455 2103 1
455 2261 1
456 15 1
456 315 1
456 475 1
456 766 1
456 801 1
456 972 1
456 1344 1
456 1407 1
456 1692 1
456 1821 1
456 2104 1
456 2134 1
457 16 1
457 316 1
457 476 1
457 639 1
457 802 1
457 973 1
457 1153 1
457 1408 1
457 1693 1
457 1822 1
457 2105 1
457 2199 1
458 17 1
458 317 1
458 477 1
458 704 1
458 803 1
458 974 1
458 1154 1
458 1409 1
458 1694 1
458 1823 1
458 2106 1
458 2264 1
459 18 1
459 318 1
459 478 1
459 577 1
459 804 1
459 975 1
459 1155 1
459 1410 1
459 1695 1
459 1824 1
459 2107 1
459 2137 1
460 19 1
460 319 1
460 479 1
460 642 1
460 805 1
460 976 1
460 1156 1
460 1411 1
460 1696 1
460 1825 1
460 2108 1
460 2202 1
461 20 1
461 320 1
461 480 1
461 707 1
461 806 1
461 977 1
461 1157 1
461 1412 1
461 1697 1
461 1826 1
461 2109 1
461 2267 1
462 21 1
462 321 1
462 481 1
462 580 1
462 807 1
462 978 1
462 1158 1
462 1413 1
462 1698 1
462 1827 1
462 2110 1
462 2140 1
463 22 1
463 322 1
463 482 1
463 645 1
463 808 1
463 979 1
463 1159 1
463 1414 1
463 1699 1
463 1828 1
463 2111 1
463 2205 1
464 23 1
464 323 1
464 483 1
464 710 1
464 809 1
464 980 1
464 1160 1
464 1415 1
464 1700 1
464 1829 1
464 2112 1
464 2270 1
465 24 1
465 324 1
465 484 1
465 583 1
465 810 1
465 981 1
465 1161 1
465 1416 1
465 1701 1
465 1830 1
465 1921 1
465 2143 1
466 25 1
466 325 1
466 485 1
466 648 1
466 811 1
466 982 1
466 1162 1
466 1417 1
466 1702 1
466 1831 1
466 1922 1
466 2208 1
467 26 1
467 326 1
467 486 1
467 713 1
467 812 1
467 983 1
467 1163 1
467 1418 1
467 1703 1
467 1832 1
467 1923 1
467 2273 1
468 27 1
468 327 1
468 487 1
468 586 1
468 813 1
468 984 1
468 1164 1
468 1419 1
468 1704 1
468 1833 1
468 1924 1
468 2146 1
469 28 1
469 328 1
469 488 1
469 651 1
469 814 1
469 985 1
469 1165 1
469 1420 1
469 1705 1
469 1834 1
469 1925 1
469 2211 1
470 29 1
470 329 1
470 489 1
470 716 1
470 815 1
470 986 1
470 1166 1
470 1421 1
470 1706 1
470 1835 1
470 1926 1
470 2276 1
471 30 1
471 330 1
471 490 1
471 589 1
471 816 1
471 987 1
471 1167 1
471 1422 1
471 1707 1
471 1836 1
471 1927 1
471 2149 1
472 31 1
472 331 1
472 491 1
472 654 1
472 817 1
472 988 1
472 1168 1
472 1423 1
472 1708 1
472 1837 1
472 1928 1
472 2214 1
473 32 1
473 332 1
473 492 1
473 719 1
473 818 1
473 989 1
473 1169 1
473 1424 1
473 1709 1
473 1838 1
473 1929 1
473 2279 1
474 33 1
474 333 1
474 493 1
474 592 1
474 819 1
474 990 1
474 1170 1
474 1425 1
474 1710 1
474 1839 1
474 1930 1
474 2152 1
475 34 1
475 334 1
475 494 1
475 657 1
475 820 1
475 991 1
475 1171 1
475 1426 1
475 1711 1
475 1840 1
475 1931 1
475 2217 1
476 35 1
476 335 1
476 495 1
476 722 1
476 821 1
476 992 1
476 1172 1
476 1427 1
476 1712 1
476 1841 1
476 1932 1
476 2282 1
477 36 1
477 336 1
477 496 1
477 595 1
477 822 1
477 993 1
477 1173 1
477 1428 1
477 1713 1
477 1842 1
477 1933 1
477 2155 1
478 37 1
478 337 1
478 497 1
478 660 1
478 823 1
478 994 1
478 1174 1
478 1429 1
478 1714 1
478 1843 1
478 1934 1
478 2220 1
479 38 1
479 338 1
479 498 1
479 725 1
479 824 1
479 995 1
479 1175 1
479 1430 1
479 1715 1
479 1844 1
479 1935 1
479 2285 1
480 39 1
480 339 1
480 499 1
480 598 1
480 825 1
480 996 1
480 1176 1
480 1431 1
480 1716 1
480 1845 1
480 1936 1
480 2158 1
481 40 1
481 340 1
481 500 1
481 663 1
481 826 1
481 997 1
481 1177 1
481 1432 1
481 1717 1
481 1846 1
481 1937 1
481 2223 1
482 41 1
482 341 1
482 501 1
482 728 1
482 827 1
482 998 1
482 1178 1
482 1433 1
482 1718 1
482 1847 1
482 1938 1
482 2288 1
483 42 1
483 342 1
483 502 1
483 601 1
483 828 1
483 999 1
483 1179 1
483 1434 1
483 1719 1
483 1848 1
483 1939 1
483 2161 1
484 43 1
484 343 1
484 503 1
484 666 1
484 829 1
484 1000 1
484 1180 1
484 1435 1
484 1720 1
484 1849 1
484 1940 1
484 2226 1
485 44 1
485 344 1
485 504 1
485 731 1
485 830 1
485 1001 1
485 1181 1
485 1436 1
485 1721 1
485 1850 1
485 1941 1
485 2291 1
486 45 1
486 345 1
486 505 1
486 604 1
486 831 1
486 1002 1
486 1182 1
486 1437 1
486 1722 1
486 1851 1
486 1942 1
486 2164 1
487 46 1
487 346 1
487 506 1
487 669 1
487 832 1
487 1003 1
487 1183 1
487 1438 1
487 1723 1
487 1852 1
487 1943 1
487 2229 1
488 47 1
488 347 1
488 507 1
488 734 1
488 833 1
488 1004 1
488 1184 1
488 1439 1
488 1724 1
488 1853 1
488 1944 1
488 2294 1
489 48 1
489 348 1
489 508 1
489 607 1
489 834 1
489 1005 1
489 1185 1
489 1440 1
489 1725 1
489 1854 1
489 1945 1
489 2167 1
490 49 1
490 349 1
490 509 1
490 672 1
490 835 1
490 1006 1
490 1186 1
490 1441 1
490 1726 1
490 1855 1
490 1946 1
490 2232 1
491 50 1
491 350 1
491 510 1
491 737 1
491 836 1
491 1007 1
491 1187 1
491 1442 1
491 1727 1
491 1856 1
491 1947 1
491 2297 1
492 51 1
492 351 1
492 511 1
492 610 1
492 837 1
492 1008 1
492 1188 1
492 1443 1
492 1728 1
492 1857 1
492 1948 1
492 2170 1
493 52 1
493 352 1
493 512 1
493 675 1
493 838 1
493 1009 1
493 1189 1
493 1444 1
493 1537 1
493 1858 1
493 1949 1
493 2235 1
494 53 1
494 353 1
494 513 1
494 740 1
494 839 1
494 1010 1
494 1190 1
494 1445 1
494 1538 1
494 1859 1
494 1950 1
494 2300 1
495 54 1
495 354 1
495 514 1
495 613 1
495 840 1
495 1011 1
495 1191 1
495 1446 1
495 1539 1
495 1860 1
495 1951 1
495 2173 1
496 55 1
496 355 1
496 515 1
496 678 1
496 841 1
496 1012 1
496 1192 1
496 1447 1
496 1540 1
496 1861 1
496 1952 1
496 2238 1
497 56 1
497 356 1
497 516 1
497 743 1
497 842 1
497 1013 1
497 1193 1
497 1448 1
497 1541 1
497 1862 1
497 1953 1
497 2303 1
498 57 1
498 357 1
498 517 1
498 616 1
498 843 1
498 1014 1
498 1194 1
498 1449 1
498 1542 1
498 1863 1
498 1954 1
498 2176 1
499 58 1
499 358 1
499 518 1
499 681 1
499 844 1
499 1015 1
499 1195 1
499 1450 1
499 1543 1
499 1864 1
499 1955 1
499 2241 1
500 59 1
500 359 1
500 519 1
500 746 1
500 845 1
500 1016 1
500 1196 1
500 1451 1
500 1544 1
500 1865 1
500 1956 1
500 2114 1
501 60 1
501 360 1
501 520 1
501 619 1
501 846 1
501 1017 1
501 1197 1
501 1452 1
501 1545 1
501 1866 1
501 1957 1
501 2179 1
502 61 1
502 361 1
502 521 1
502 684 1
502 847 1
502 1018 1
502 1198 1
502 1453 1
502 1546 1
502 1867 1
502 1958 1
502 2244 1
503 62 1
503 362 1
503 522 1
503 749 1
503 848 1
503 1019 1
503 1199 1
503 1454 1
503 1547 1
503 1868 1
503 1959 1
503 2117 1
504 63 1
504 363 1
504 523 1
504 622 1
504 849 1
504 1020 1
504 1200 1
504 1455 1
504 1548 1
504 1869 1
504 1960 1
504 2182 1
505 64 1
505 364 1
505 524 1
505 687 1
505 850 1
505 1021 1
505 1201 1
505 1456 1
505 1549 1
505 1870 1
505 1961 1
505 2247 1
506 65 1
506 365 1
506 525 1
506 752 1
506 851 1
506 1022 1
506 1202 1
506 1457 1
506 1550 1
506 1871 1
506 1962 1
506 2120 1
507 66 1
507 366 1
507 526 1
507 625 1
507 852 1
507 1023 1
507 1203 1
507 1458 1
507 1551 1
507 1872 1
507 1963 1
507 2185 1
508 67 1
508 367 1
508 527 1
508 690 1
508 853 1
508 1024 1
508 1204 1
508 1459 1
508 1552 1
508 1873 1
508 1964 1
508 2250 1
509 68 1
509 368 1
509 528 1
509 755 1
509 854 1
509 1025 1
509 1205 1
509 1460 1
509 1553 1
509 1874 1
509 1965 1
509 2123 1
510 69 1
510 369 1
510 529 1
510 628 1
510 855 1
510 1026 1
510 1206 1
510 1461 1
510 1554 1
510 1875 1
510 1966 1
510 2188 1
511 70 1
511 370 1
511 530 1
511 693 1
511 856 1
511 1027 1
511 1207 1
511 1462 1
511 1555 1
511 1876 1
511 1967 1
511 2253 1
512 71 1
512 371 1
512 531 1
512 758 1
512 857 1
512 1028 1
512 1208 1
512 1463 1
512 1556 1
512 1877 1
512 1968 1
512 2126 1
513 72 1
513 372 1
513 532 1
513 631 1
513 858 1
513 1029 1
513 1209 1
513 1464 1
513 1557 1
513 1878 1
513 1969 1
513 2191 1
514 73 1
514 373 1
514 533 1
514 696 1
514 859 1
514 1030 1
514 1210 1
514 1465 1
514 1558 1
514 1879 1
514 1970 1
514 2256 1
515 74 1
515 374 1
515 534 1
515 761 1
515 860 1
515 1031 1
515 1211 1
515 1466 1
515 1559 1
515 1880 1
515 1971 1
515 2129 1
516 75 1
516 375 1
516 535 1
516 634 1
516 861 1
516 1032 1
516 1212 1
516 1467 1
516 1560 1
516 1881 1
516 1972 1
516 2194 1
517 76 1
517 376 1
517 536 1
517 699 1
517 862 1
517 1033 1
517 1213 1
517 1468 1
517 1561 1
517 1882 1
517 1973 1
517 2259 1
518 77 1
518 377 1
518 537 1
518 764 1
518 863 1
518 1034 1
518 1214 1
518 1469 1
518 1562 1
518 1883 1
518 1974 1
518 2132 1
519 78 1
519 378 1
519 538 1
519 637 1
519 864 1
519 1035 1
519 1215 1
519 1470 1
519 1563 1
519 1884 1
519 1975 1
519 2197 1
520 79 1
520 379 1
520 539 1
520 702 1
520 865 1
520 1036 1
520 1216 1
520 1471 1
520 1564 1
520 1885 1
520 1976 1
520 2262 1
521 80 1
521 380 1
521 540 1
521 767 1
521 866 1
521 1037 1
521 1217 1
521 1472 1
521 1565 1
521 1886 1
521 1977 1
521 2135 1
522 81 1
522 381 1
522 541 1
522 640 1
522 867 1
522 1038 1
522 1218 1
522 1473 1
522 1566 1
522 1887 1
522 1978 1
522 2200 1
523 82 1
523 382 1
523 542 1
523 705 1
523 868 1
523 1039 1
523 1219 1
523 1474 1
523 1567 1
523 1888 1
523 1979 1
523 2265 1
524 83 1
524 383 1
524 543 1
524 578 1
524 869 1
524 1040 1
524 1220 1
524 1475 1
524 1568 1
524 1889 1
524 1980 1
524 2138 1
525 84 1
525 384 1
525 544 1
525 643 1
525 870 1
525 1041 1
525 1221 1
525 1476 1
525 1569 1
525 1890 1
525 1981 1
525 2203 1
526 85 1
526 193 1
526 545 1
526 708 1
526 871 1
526 1042 1
526 1222 1
526 1477 1
526 1570 1
526 1891 1
526 1982 1
526 2268 1
527 86 1
527 194 1
527 546 1
527 581 1
527 872 1
527 1043 1
527 1223 1
527 1478 1
527 1571 1
527 1892 1
527 1983 1
527 2141 1
528 87 1
528 195 1
528 547 1
528 646 1
528 873 1
528 1044 1
528 1224 1
528 1479 1
528 1572 1
528 1893 1
528 1984 1
528 2206 1
529 88 1
529 196 1
529 548 1
529 711 1
529 874 1
529 1045 1
529 1225 1
529 1480 1
529 1573 1
529 1894 1
529 1985 1
529 2271 1
530 89 1
530 197 1
530 549 1
530 584 1
530 875 1
530 1046 1
530 1226 1
530 1481 1
530 1574 1
530 1895 1
530 1986 1
530 2144 1
531 90 1
531 198 1
531 550 1
531 649 1
531 876 1
531 1047 1
531 1227 1
531 1482 1
531 1575 1
531 1896 1
531 1987 1
531 2209 1
532 91 1
532 199 1
532 551 1
532 714 1
532 877 1
532 1048 1
532 1228 1
532 1483 1
532 1576 1
532 1897 1
532 1988 1
532 2274 1
533 92 1
533 200 1
533 552 1
533 587 1
533 878 1
533 1049 1
533 1229 1
533 1484 1
533 1577 1
533 1898 1
533 1989 1
533 2147 1
534 93 1
534 201 1
534 553 1
534 652 1
534 879 1
534 1050 1
534 1230 1
534 1485 1
534 1578 1
534 1899 1
534 1990 1
534 2212 1
535 94 1
535 202 1
535 554 1
535 717 1
535 880 1
535 1051 1
535 1231 1
535 1486 1
535 1579 1
535 1900 1
535 1991 1
535 2277 1
536 95 1
536 203 1
536 555 1
536 590 1
536 881 1
536 1052 1
536 1232 1
536 1487 1
536 1580 1
536 1901 1
536 1992 1
536 2150 1
537 96 1
537 204 1
537 556 1
537 655 1
537 882 1
537 1053 1
537 1233 1
537 1488 1
537 1581 1
537 1902 1
537 1993 1
537 2215 1
538 97 1
538 205 1
538 557 1
538 720 1
538 883 1
538 1054 1
538 1234 1
538 1489 1
538 1582 1
538 1903 1
538 1994 1
538 2280 1
539 98 1
539 206 1
539 558 1
539 593 1
539 884 1
539 1055 1
539 1235 1
539 1490 1
539 1583 1
539 1904 1
539 1995 1
539 2153 1
540 99 1
540 207 1
540 559 1
540 658 1
540 885 1
540 1056 1
540 1236 1
540 1491 1
540 1584 1
540 1905 1
540 1996 1
540 2218 1
541 100 1
541 208 1
541 560 1
541 723 1
541 886 1
541 1057 1
541 1237 1
541 1492 1
541 1585 1
541 1906 1
541 1997 1
541 2283 1
542 101 1
542 209 1
542 561 1
542 596 1
542 887 1
542 1058 1
542 1238 1
542 1493 1
542 1586 1
542 1907 1
542 1998 1
542 2156 1
543 102 1
543 210 1
543 562 1
543 661 1
543 888 1
543 1059 1
543 1239 1
543 1494 1
543 1587 1
543 1908 1
543 1999 1
543 2221 1
544 103 1
544 211 1
544 563 1
544 726 1
544 889 1
544 1060 1
544 1240 1
544 1495 1
544 1588 1
544 1909 1
544 2000 1
544 2286 1
545 104 1
545 212 1
545 564 1
545 599 1
545 890 1
545 1061 1
545 1241 1
545 1496 1
545 1589 1
545 1910 1
545 2001 1
545 2159 1
546 105 1
546 213 1
546 565 1
546 664 1
546 891 1
546 1062 1
546 1242 1
546 1497 1
546 1590 1
546 1911 1
546 2002 1
546 2224 1
547 106 1
547 214 1
547 566 1
547 729 1
547 892 1
547 1063 1
547 1243 1
547 1498 1
547 1591 1
547 1912 1
547 2003 1
547 2289 1
548 107 1
548 215 1
548 567 1
548 602 1
548 893 1
548 1064 1
548 1244 1
548 1499 1
548 1592 1
548 1913 1
548 2004 1
548 2162 1
549 108 1
549 216 1
549 568 1
549 667 1
549 894 1
549 1065 1
549 1245 1
549 1500 1
549 1593 1
549 1914 1
549 2005 1
549 2227 1
550 109 1
550 217 1
550 569 1
550 732 1
550 895 1
550 1066 1
550 1246 1
550 1501 1
550 1594 1
550 1915 1
550 2006 1
550 2292 1
551 110 1
551 218 1
551 570 1
551 605 1
551 896 1
551 1067 1
551 1247 1
551 1502 1
551 1595 1
551 1916 1
551 2007 1
551 2165 1
552 111 1
552 219 1
552 571 1
552 670 1
552 897 1
552 1068 1
552 1248 1
552 1503 1
552 1596 1
552 1917 1
552 2008 1
552 2230 1
553 112 1
553 220 1
553 572 1
553 735 1
553 898 1
553 1069 1
553 1249 1
553 1504 1
553 1597 1
553 1918 1
553 2009 1
553 2295 1
554 113 1
554 221 1
554 573 1
554 608 1
554 899 1
554 1070 1
554 1250 1
554 1505 1
554 1598 1
554 1919 1
554 2010 1
554 2168 1
555 114 1
555 222 1
555 574 1
555 673 1
555 900 1
555 1071 1
555 1251 1
555 1506 1
555 1599 1
555 1920 1
555 2011 1
555 2233 1
556 115 1
556 223 1
556 575 1
556 738 1
556 901 1
556 1072 1
556 1252 1
556 1507 1
556 1600 1
556 1729 1
556 2012 1
556 2298 1
557 116 1
557 224 1
557 576 1
557 611 1
557 902 1
557 1073 1
557 1253 1
557 1508 1
557 1601 1
557 1730 1
557 2013 1
557 2171 1
558 117 1
558 225 1
558 385 1
558 676 1
558 903 1
558 1074 1
558 1254 1
558 1509 1
558 1602 1
558 1731 1
558 2014 1
558 2236 1
559 118 1
559 226 1
559 386 1
559 741 1
559 904 1
559 1075 1
559 1255 1
559 1510 1
559 1603 1
559 1732 1
559 2015 1
559 2301 1
560 119 1
560 227 1
560 387 1
560 614 1
560 905 1
560 1076 1
560 1256 1
560 1511 1
560 1604 1
560 1733 1
560 2016 1
560 2174 1
561 120 1
561 228 1
561 388 1
561 679 1
561 906 1
561 1077 1
561 1257 1
561 1512 1
561 1605 1
561 1734 1
561 2017 1
561 2239 1
562 121 1
562 229 1
562 389 1
562 744 1
562 907 1
562 1078 1
562 1258 1
562 1513 1
562 1606 1
562 1735 1
562 2018 1
562 2304 1
563 122 1
563 230 1
563 390 1
563 617 1
563 908 1
563 1079 1
563 1259 1
563 1514 1
563 1607 1
563 1736 1
563 2019 1
563 2177 1
564 123 1
564 231 1
564 391 1
564 682 1
564 909 1
564 1080 1
564 1260 1
564 1515 1
564 1608 1
564 1737 1
564 2020 1
564 2242 1
565 124 1
565 232 1
565 392 1
565 747 1
565 910 1
565 1081 1
565 1261 1
565 1516 1
565 1609 1
565 1738 1
565 2021 1
565 2115 1
566 125 1
566 233 1
566 393 1
566 620 1
566 911 1
566 1082 1
566 1262 1
566 1517 1
566 1610 1
566 1739 1
566 2022 1
566 2180 1
567 126 1
567 234 1
567 394 1
567 685 1
567 912 1
567 1083 1
567 1263 1
567 1518 1
567 1611 1
567 1740 1
567 2023 1
567 2245 1
568 127 1
568 235 1
568 395 1
568 750 1
568 913 1
568 1084 1
568 1264 1
568 1519 1
568 1612 1
568 1741 1
568 2024 1
568 2118 1
569 128 1
569 236 1
569 396 1
569 623 1
569 914 1
569 1085 1
569 1265 1
569 1520 1
569 1613 1
569 1742 1
569 2025 1
569 2183 1
570 129 1
570 237 1
570 397 1
570 688 1
570 915 1
570 1086 1
570 1266 1
570 1521 1
570 1614 1
570 1743 1
570 2026 1
570 2248 1
571 130 1
571 238 1
571 398 1
571 753 1
571 916 1
571 1087 1
571 1267 1
571 1522 1
571 1615 1
571 1744 1
571 2027 1
571 2121 1
572 131 1
572 239 1
572 399 1
572 626 1
572 917 1
572 1088 1
572 1268 1
572 1523 1
572 1616 1
572 1745 1
572 2028 1
572 2186 1
573 132 1
573 240 1
573 400 1
573 691 1
573 918 1
573 1089 1
573 1269 1
573 1524 1
573 1617 1
573 1746 1
573 2029 1
573 2251 1
574 133 1
574 241 1
574 401 1
574 756 1
574 919 1
574 1090 1
574 1270 1
574 1525 1
574 1618 1
574 1747 1
574 2030 1
574 2124 1
575 134 1
575 242 1
575 402 1
575 629 1
575 920 1
575 1091 1
575 1271 1
575 1526 1
575 1619 1
575 1748 1
575 2031 1
575 2189 1
576 135 1
576 243 1
576 403 1
576 694 1
576 921 1
576 1092 1
576 1272 1
576 1527 1
576 1620 1
576 1749 1
576 2032 1
576 2254 1
