%%MatrixMarket matrix coordinate integer general
%
441 1764 5292
1 143 1
1 153 1
1 328 1
1 565 1
1 709 1
1 841 1
1 925 1
1 1117 1
1 1307 1
1 1419 1
1 1516 1
1 1696 1
2 144 1
2 203 1
2 329 1
2 566 1
2 710 1
2 842 1
2 926 1
2 1118 1
2 1308 1
2 1469 1
2 1517 1
2 1697 1
3 145 1
3 253 1
3 330 1
3 567 1
3 711 1
3 843 1
3 927 1
3 1119 1
3 1309 1
3 1372 1
3 1518 1
3 1698 1
4 146 1
4 156 1
4 331 1
4 568 1
4 712 1
4 844 1
4 928 1
4 1120 1
4 1310 1
4 1422 1
4 1519 1
4 1699 1
5 147 1
5 206 1
5 332 1
5 569 1
5 713 1
5 845 1
5 929 1
5 1121 1
5 1311 1
5 1325 1
5 1520 1
5 1700 1
6 1 1
6 256 1
6 333 1
6 570 1
6 714 1
6 846 1
6 930 1
6 1122 1
6 1312 1
6 1375 1
6 1521 1
6 1701 1
7 2 1
7 159 1
7 334 1
7 571 1
7 715 1
7 847 1
7 931 1
7 1123 1
7 1313 1
7 1425 1
7 1522 1
7 1702 1
8 3 1
8 209 1
8 335 1
8 572 1
8 716 1
8 848 1
8 932 1
8 1124 1
8 1314 1
8 1328 1
8 1523 1
8 1703 1
9 4 1
9 259 1
9 336 1
9 573 1
9 717 1
9 849 1
9 933 1
9 1125 1
9 1315 1
9 1378 1
9 1524 1
9 1704 1
10 5 1
10 162 1
10 337 1
10 574 1
10 718 1
10 850 1
10 934 1
10 1126 1
10 1316 1
10 1428 1
10 1525 1
10 1705 1
11 6 1
11 212 1
11 338 1
11 575 1
11 719 1
11 851 1
11 935 1
11 1127 1
11 1317 1
11 1331 1
11 1526 1
11 1706 1
12 7 1
12 262 1
12 339 1
12 576 1
12 720 1
12 852 1
12 936 1
12 1128 1
12 1318 1
12 1381 1
12 1527 1
12 1707 1
13 8 1
13 165 1
13 340 1
13 577 1
13 721 1
13 853 1
13 937 1
13 1129 1
13 1319 1
13 1431 1
13 1528 1
13 1708 1
14 9 1
14 215 1
14 341 1
14 578 1
14 722 1
14 854 1
14 938 1
14 1130 1
14 1320 1
14 1334 1
14 1529 1
14 1709 1
15 10 1
15 265 1
15 342 1
15 579 1
15 723 1
15 855 1
15 939 1
15 1131 1
15 1321 1
15 1384 1
15 1530 1
15 1710 1
16 11 1
16 168 1
16 343 1
16 580 1
16 724 1
16 856 1
16 940 1
16 1132 1
16 1322 1
16 1434 1
16 1531 1
16 1711 1
17 12 1
17 218 1
17 344 1
17 581 1
17 725 1
17 857 1
17 941 1
17 1133 1
17 1323 1
17 1337 1
17 1532 1
17 1712 1
18 13 1
18 268 1
18 345 1
18 582 1
18 726 1
18 858 1
18 942 1
18 1134 1
18 1177 1
18 1387 1
18 1533 1
18 1713 1
19 14 1
19 171 1
19 346 1
19 583 1
19 727 1
19 859 1
19 943 1
19 1135 1
19 1178 1
19 1437 1
19 1534 1
19 1714 1
20 15 1
20 221 1
20 347 1
20 584 1
20 728 1
20 860 1
20 944 1
20 1136 1
20 1179 1
20 1340 1
20 1535 1
20 1715 1
21 16 1
21 271 1
21 348 1
21 585 1
21 729 1
21 861 1
21 945 1
21 1137 1
21 1180 1
21 1390 1
21 1536 1
21 1716 1
22 17 1
22 174 1
22 349 1
22 586 1
22 730 1
22 862 1
22 946 1
22 1138 1
22 1181 1
22 1440 1
22 1537 1
22 1717 1
23 18 1
23 224 1
23 350 1
23 587 1
23 731 1
23 863 1
23 947 1
23 1139 1
23 1182 1
23 1343 1
23 1538 1
23 1718 1
24 19 1
24 274 1
24 351 1
24 588 1
24 732 1
24 864 1
24 948 1
24 1140 1
24 1183 1
24 1393 1
24 1539 1
24 1719 1
25 20 1
25 177 1
25 352 1
25 442 1
25 733 1
25 865 1
25 949 1
25 1141 1
25 1184 1
25 1443 1
25 1540 1
25 1720 1
26 21 1
26 227 1
26 353 1
26 443 1
26 734 1
26 866 1
26 950 1
26 1142 1
26 1185 1
26 1346 1
26 1541 1
26 1721 1
27 22 1
27 277 1
27 354 1
27 444 1
27 735 1
27 867 1
27 951 1
27 1143 1
27 1186 1
27 1396 1
27 1542 1
27 1722 1
28 23 1
28 180 1
28 355 1
28 445 1
28 589 1
28 868 1
28 952 1
28 1144 1
28 1187 1
28 1446 1
28 1543 1
28 1723 1
29 24 1
29 230 1
29 356 1
29 446 1
29 590 1
29 869 1
29 953 1
29 1145 1
29 1188 1
29 1349 1
29 1544 1
29 1724 1
30 25 1
30 280 1
30 357 1
30 447 1
30 591 1
30 870 1
30 954 1
30 1146 1
30 1189 1
30 1399 1
30 1545 1
30 1725 1
31 26 1
31 183 1
31 358 1
31 448 1
31 592 1
31 871 1
31 955 1
31 1147 1
31 1190 1
31 1449 1
31 1546 1
31 1726 1
32 27 1
32 233 1
32 359 1
32 449 1
32 593 1
32 872 1
32 956 1
32 1148 1
32 1191 1
32 1352 1
32 1547 1
32 1727 1
33 28 1
33 283 1
33 360 1
33 450 1
33 594 1
33 873 1
33 957 1
33 1149 1
33 1192 1
33 1402 1
33 1548 1
33 1728 1
34 29 1
34 186 1
34 361 1
34 451 1
34 595 1
34 874 1
34 958 1
34 1150 1
34 1193 1
34 1452 1
34 1549 1
34 1729 1
35 30 1
35 236 1
35 362 1
35 452 1
35 596 1
35 875 1
35 959 1
35 1151 1
35 1194 1
35 1355 1
35 1550 1
35 1730 1
36 31 1
36 286 1
36 363 1
36 453 1
36 597 1
36 876 1
36 960 1
36 1152 1
36 1195 1
36 1405 1
36 1551 1
36 1731 1
37 32 1
37 189 1
37 364 1
37 454 1
37 598 1
37 877 1
37 961 1
37 1153 1
37 1196 1
37 1455 1
37 1552 1
37 1732 1
38 33 1
38 239 1
38 365 1
38 455 1
38 599 1
38 878 1
38 962 1
38 1154 1
38 1197 1
38 1358 1
38 1553 1
38 1733 1
39 34 1
39 289 1
39 366 1
39 456 1
39 600 1
39 879 1
39 963 1
39 1155 1
39 1198 1
39 1408 1
39 1554 1
39 1734 1
40 35 1
40 192 1
40 367 1
40 457 1
40 601 1
40 880 1
40 964 1
40 1156 1
40 1199 1
40 1458 1
40 1555 1
40 1735 1
41 36 1
41 242 1
41 368 1
41 458 1
41 602 1
41 881 1
41 965 1
41 1157 1
41 1200 1
41 1361 1
41 1556 1
41 1736 1
42 37 1
42 292 1
42 369 1
42 459 1
42 603 1
42 882 1
42 966 1
42 1158 1
42 1201 1
42 1411 1
42 1557 1
42 1737 1
43 38 1
43 195 1
43 370 1
43 460 1
43 604 1
43 736 1
43 967 1
43 1159 1
43 1202 1
43 1461 1
43 1558 1
43 1738 1
44 39 1
44 245 1
44 371 1
44 461 1
44 605 1
44 737 1
44 968 1
44 1160 1
44 1203 1
44 1364 1
44 1559 1
44 1739 1
45 40 1
45 148 1
45 372 1
45 462 1
45 606 1
45 738 1
45 969 1
45 1161 1
45 1204 1
45 1414 1
45 1560 1
45 1740 1
46 41 1
46 198 1
46 373 1
46 463 1
46 607 1
46 739 1
46 970 1
46 1162 1
46 1205 1
46 1464 1
46 1561 1
46 1741 1
47 42 1
47 248 1
47 374 1
47 464 1
47 608 1
47 740 1
47 971 1
47 1163 1
47 1206 1
47 1367 1
47 1562 1
47 1742 1
48 43 1
48 151 1
48 375 1
48 465 1
48 609 1
48 741 1
48 972 1
48 1164 1
48 1207 1
48 1417 1
48 1563 1
48 1743 1
49 44 1
49 201 1
49 376 1
49 466 1
49 610 1
49 742 1
49 973 1
49 1165 1
49 1208 1
49 1467 1
49 1564 1
49 1744 1
50 45 1
50 251 1
50 377 1
50 467 1
50 611 1
50 743 1
50 974 1
50 1166 1
50 1209 1
50 1370 1
50 1565 1
50 1745 1
51 46 1
51 154 1
51 378 1
51 468 1
51 612 1
51 744 1
51 975 1
51 1167 1
51 1210 1
51 1420 1
51 1566 1
51 1746 1
52 47 1
52 204 1
52 379 1
52 469 1
52 613 1
52 745 1
52 976 1
52 1168 1
52 1211 1
52 1470 1
52 1567 1
52 1747 1
53 48 1
53 254 1
53 380 1
53 470 1
53 614 1
53 746 1
53 977 1
53 1169 1
53 1212 1
53 1373 1
53 1568 1
53 1748 1
54 49 1
54 157 1
54 381 1
54 471 1
54 615 1
54 747 1
54 978 1
54 1170 1
54 1213 1
54 1423 1
54 1569 1
54 1749 1
55 50 1
55 207 1
55 382 1
55 472 1
55 616 1
55 748 1
55 979 1
55 1171 1
55 1214 1
55 1326 1
55 1570 1
55 1750 1
56 51 1
56 257 1
56 383 1
56 473 1
56 617 1
56 749 1
56 980 1
56 1172 1
56 1215 1
56 1376 1
56 1571 1
56 1751 1
57 52 1
57 160 1
57 384 1
57 474 1
57 618 1
57 750 1
57 981 1
57 1173 1
57 1216 1
57 1426 1
57 1572 1
57 1752 1
58 53 1
58 210 1
58 385 1
58 475 1
58 619 1
58 751 1
58 982 1
58 1174 1
58 1217 1
58 1329 1
58 1573 1
58 1753 1
59 54 1
59 260 1
59 386 1
59 476 1
59 620 1
59 752 1
59 983 1
59 1175 1
59 1218 1
59 1379 1
59 1574 1
59 1754 1
60 55 1
60 163 1
60 387 1
60 477 1
60 621 1
60 753 1
60 984 1
60 1176 1
60 1219 1
60 1429 1
60 1575 1
60 1755 1
61 56 1
61 213 1
61 388 1
61 478 1
61 622 1
61 754 1
61 985 1
61 1030 1
61 1220 1
61 1332 1
61 1576 1
61 1756 1
62 57 1
62 263 1
62 389 1
62 479 1
62 623 1
62 755 1
62 986 1
62 1031 1
62 1221 1
62 1382 1
62 1577 1
62 1757 1
63 58 1
63 166 1
63 390 1
63 480 1
63 624 1
63 756 1
63 987 1
63 1032 1
63 1222 1
63 1432 1
63 1578 1
63 1758 1
64 59 1
64 216 1
64 391 1
64 481 1
64 625 1
64 757 1
64 988 1
64 1033 1
64 1223 1
64 1335 1
64 1579 1
64 1759 1
65 60 1
65 266 1
65 392 1
65 482 1
65 626 1
65 758 1
65 989 1
65 1034 1
65 1224 1
65 1385 1
65 1580 1
65 1760 1
66 61 1
66 169 1
66 393 1
66 483 1
66 627 1
66 759 1
66 990 1
66 1035 1
66 1225 1
66 1435 1
66 1581 1
66 1761 1
67 62 1
67 219 1
67 394 1
67 484 1
67 628 1
67 760 1
67 991 1
67 1036 1
67 1226 1
67 1338 1
67 1582 1
67 1762 1
68 63 1
68 269 1
68 395 1
68 485 1
68 629 1
68 761 1
68 992 1
68 1037 1
68 1227 1
68 1388 1
68 1583 1
68 1763 1
69 64 1
69 172 1
69 396 1
69 486 1
69 630 1
69 762 1
69 993 1
69 1038 1
69 1228 1
69 1438 1
69 1584 1
69 1764 1
70 65 1
70 222 1
70 397 1
70 487 1
70 631 1
70 763 1
70 994 1
70 1039 1
70 1229 1
70 1341 1
70 1585 1
70 1618 1
71 66 1
71 272 1
71 398 1
71 488 1
71 632 1
71 764 1
71 995 1
71 1040 1
71 1230 1
71 1391 1
71 1586 1
71 1619 1
72 67 1
72 175 1
72 399 1
72 489 1
72 633 1
72 765 1
72 996 1
72 1041 1
72 1231 1
72 1441 1
72 1587 1
72 1620 1
73 68 1
73 225 1
73 400 1
73 490 1
73 634 1
73 766 1
73 997 1
73 1042 1
73 1232 1
73 1344 1
73 1588 1
73 1621 1
74 69 1
74 275 1
74 401 1
74 491 1
74 635 1
74 767 1
74 998 1
74 1043 1
74 1233 1
74 1394 1
74 1589 1
74 1622 1
75 70 1
75 178 1
75 402 1
75 492 1
75 636 1
75 768 1
75 999 1
75 1044 1
75 1234 1
75 1444 1
75 1590 1
75 1623 1
76 71 1
76 228 1
76 403 1
76 493 1
76 637 1
76 769 1
76 1000 1
76 1045 1
76 1235 1
76 1347 1
76 1591 1
76 1624 1
77 72 1
77 278 1
77 404 1
77 494 1
77 638 1
77 770 1
77 1001 1
77 1046 1
77 1236 1
77 1397 1
77 1592 1
77 1625 1
78 73 1
78 181 1
78 405 1
78 495 1
78 639 1
78 771 1
78 1002 1
78 1047 1
78 1237 1
78 1447 1
78 1593 1
78 1626 1
79 74 1
79 231 1
79 406 1
79 496 1
79 640 1
79 772 1
79 1003 1
79 1048 1
79 1238 1
79 1350 1
79 1594 1
79 1627 1
80 75 1
80 281 1
80 407 1
80 497 1
80 641 1
80 773 1
80 1004 1
80 1049 1
80 1239 1
80 1400 1
80 1595 1
80 1628 1
81 76 1
81 184 1
81 408 1
81 498 1
81 642 1
81 774 1
81 1005 1
81 1050 1
81 1240 1
81 1450 1
81 1596 1
81 1629 1
82 77 1
82 234 1
82 409 1
82 499 1
82 643 1
82 775 1
82 1006 1
82 1051 1
82 1241 1
82 1353 1
82 1597 1
82 1630 1
83 78 1
83 284 1
83 410 1
83 500 1
83 644 1
83 776 1
83 1007 1
83 1052 1
83 1242 1
83 1403 1
83 1598 1
83 1631 1
84 79 1
84 187 1
84 411 1
84 501 1
84 645 1
84 777 1
84 1008 1
84 1053 1
84 1243 1
84 1453 1
84 1599 1
84 1632 1
85 80 1
85 237 1
85 412 1
85 502 1
85 646 1
85 778 1
85 1009 1
85 1054 1
85 1244 1
85 1356 1
85 1600 1
85 1633 1
86 81 1
86 287 1
86 413 1
86 503 1
86 647 1
86 779 1
86 1010 1
86 1055 1
86 1245 1
86 1406 1
86 1601 1
86 1634 1
87 82 1
87 190 1
87 414 1
87 504 1
87 648 1
87 780 1
87 1011 1
87 1056 1
87 1246 1
87 1456 1
87 1602 1
87 1635 1
88 83 1
88 240 1
88 415 1
88 505 1
88 649 1
88 781 1
88 1012 1
88 1057 1
88 1247 1
88 1359 1
88 1603 1
88 1636 1
89 84 1
89 290 1
89 416 1
89 506 1
89 650 1
89 782 1
89 1013 1
89 1058 1
89 1248 1
89 1409 1
89 1604 1
89 1637 1
90 85 1
90 193 1
90 417 1
90 507 1
90 651 1
90 783 1
90 1014 1
90 1059 1
90 1249 1
90 1459 1
90 1605 1
90 1638 1
91 86 1
91 243 1
91 418 1
91 508 1
91 652 1
91 784 1
91 1015 1
91 1060 1
91 1250 1
91 1362 1
91 1606 1
91 1639 1
92 87 1
92 293 1
92 419 1
92 509 1
92 653 1
92 785 1
92 1016 1
92 1061 1
92 1251 1
92 1412 1
92 1607 1
92 1640 1
93 88 1
93 196 1
93 420 1
93 510 1
93 654 1
93 786 1
93 1017 1
93 1062 1
93 1252 1
93 1462 1
93 1608 1
93 1641 1
94 89 1
94 246 1
94 421 1
94 511 1
94 655 1
94 787 1
94 1018 1
94 1063 1
94 1253 1
94 1365 1
94 1609 1
94 1642 1
95 90 1
95 149 1
95 422 1
95 512 1
95 656 1
95 788 1
95 1019 1
95 1064 1
95 1254 1
95 1415 1
95 1610 1
95 1643 1
96 91 1
96 199 1
96 423 1
96 513 1
96 657 1
96 789 1
96 1020 1
96 1065 1
96 1255 1
96 1465 1
96 1611 1
96 1644 1
97 92 1
97 249 1
97 424 1
97 514 1
97 658 1
97 790 1
97 1021 1
97 1066 1
97 1256 1
97 1368 1
97 1612 1
97 1645 1
98 93 1
98 152 1
98 425 1
98 515 1
98 659 1
98 791 1
98 1022 1
98 1067 1
98 1257 1
98 1418 1
98 1613 1
98 1646 1
99 94 1
99 202 1
99 426 1
99 516 1
99 660 1
99 792 1
99 1023 1
99 1068 1
99 1258 1
99 1468 1
99 1614 1
99 1647 1
100 95 1
100 252 1
100 427 1
100 517 1
100 661 1
100 793 1
100 1024 1
100 1069 1
100 1259 1
100 1371 1
100 1615 1
100 1648 1
101 96 1
101 155 1
101 428 1
101 518 1
101 662 1
101 794 1
101 1025 1
101 1070 1
101 1260 1
101 1421 1
101 1616 1
101 1649 1
102 97 1
102 205 1
102 429 1
102 519 1
102 663 1
102 795 1
102 1026 1
102 1071 1
102 1261 1
102 1324 1
102 1617 1
102 1650 1
103 98 1
103 255 1
103 430 1
103 520 1
103 664 1
103 796 1
103 1027 1
103 1072 1
103 1262 1
103 1374 1
103 1471 1
103 1651 1
104 99 1
104 158 1
104 431 1
104 521 1
104 665 1
104 797 1
104 1028 1
104 1073 1
104 1263 1
104 1424 1
104 1472 1
104 1652 1
105 100 1
105 208 1
105 432 1
105 522 1
105 666 1
105 798 1
105 1029 1
105 1074 1
105 1264 1
105 1327 1
105 1473 1
105 1653 1
106 101 1
106 258 1
106 433 1
106 523 1
106 667 1
106 799 1
106 883 1
106 1075 1
106 1265 1
106 1377 1
106 1474 1
106 1654 1
107 102 1
107 161 1
107 434 1
107 524 1
107 668 1
107 800 1
107 884 1
107 1076 1
107 1266 1
107 1427 1
107 1475 1
107 1655 1
108 103 1
108 211 1
108 435 1
108 525 1
108 669 1
108 801 1
108 885 1
108 1077 1
108 1267 1
108 1330 1
108 1476 1
108 1656 1
109 104 1
109 261 1
109 436 1
109 526 1
109 670 1
109 802 1
109 886 1
109 1078 1
109 1268 1
109 1380 1
109 1477 1
109 1657 1
110 105 1
110 164 1
110 437 1
110 527 1
110 671 1
110 803 1
110 887 1
110 1079 1
110 1269 1
110 1430 1
110 1478 1
110 1658 1
111 106 1
111 214 1
111 438 1
111 528 1
111 672 1
111 804 1
111 888 1
111 1080 1
111 1270 1
111 1333 1
111 1479 1
111 1659 1
112 107 1
112 264 1
112 439 1
112 529 1
112 673 1
112 805 1
112 889 1
112 1081 1
112 1271 1
112 1383 1
112 1480 1
112 1660 1
113 108 1
113 167 1
113 440 1
113 530 1
113 674 1
113 806 1
113 890 1
113 1082 1
113 1272 1
113 1433 1
113 1481 1
113 1661 1
114 109 1
114 217 1
114 441 1
114 531 1
114 675 1
114 807 1
114 891 1
114 1083 1
114 1273 1
114 1336 1
114 1482 1
114 1662 1
115 110 1
115 267 1
115 295 1
115 532 1
115 676 1
115 808 1
115 892 1
115 1084 1
115 1274 1
115 1386 1
115 1483 1
115 1663 1
116 111 1
116 170 1
116 296 1
116 533 1
116 677 1
116 809 1
116 893 1
116 1085 1
116 1275 1
116 1436 1
116 1484 1
116 1664 1
117 112 1
117 220 1
117 297 1
117 534 1
117 678 1
117 810 1
117 894 1
117 1086 1
117 1276 1
117 1339 1
117 1485 1
117 1665 1
118 113 1
118 270 1
118 298 1
118 535 1
118 679 1
118 811 1
118 895 1
118 1087 1
118 1277 1
118 1389 1
118 1486 1
118 1666 1
119 114 1
119 173 1
119 299 1
119 536 1
119 680 1
119 812 1
119 896 1
119 1088 1
119 1278 1
119 1439 1
119 1487 1
119 1667 1
120 115 1
120 223 1
120 300 1
120 537 1
120 681 1
120 813 1
120 897 1
120 1089 1
120 1279 1
120 1342 1
120 1488 1
120 1668 1
121 116 1
121 273 1
121 301 1
121 538 1
121 682 1
121 814 1
121 898 1
121 1090 1
121 1280 1
121 1392 1
121 1489 1
121 1669 1
122 117 1
122 176 1
122 302 1
122 539 1
122 683 1
122 815 1
122 899 1
122 1091 1
122 1281 1
122 1442 1
122 1490 1
122 1670 1
123 118 1
123 226 1
123 303 1
123 540 1
123 684 1
123 816 1
123 900 1
123 1092 1
123 1282 1
123 1345 1
123 1491 1
123 1671 1
124 119 1
124 276 1
124 304 1
124 541 1
124 685 1
124 817 1
124 901 1
124 1093 1
124 1283 1
124 1395 1
124 1492 1
124 1672 1
125 120 1
125 179 1
125 305 1
125 542 1
125 686 1
125 818 1
125 902 1
125 1094 1
125 1284 1
125 1445 1
125 1493 1
125 1673 1
126 121 1
126 229 1
126 306 1
126 543 1
126 687 1
126 819 1
126 903 1
126 1095 1
126 1285 1
126 1348 1
126 1494 1
126 1674 1
127 122 1
127 279 1
127 307 1
127 544 1
127 688 1
127 820 1
127 904 1
127 1096 1
127 1286 1
127 1398 1
127 1495 1
127 1675 1
128 123 1
128 182 1
128 308 1
128 545 1
128 689 1
128 821 1
128 905 1
128 1097 1
128 1287 1
128 1448 1
128 1496 1
128 1676 1
129 124 1
129 232 1
129 309 1
129 546 1
129 690 1
129 822 1
129 906 1
129 1098 1
129 1288 1
129 1351 1
129 1497 1
129 1677 1
130 125 1
130 282 1
130 310 1
130 547 1
130 691 1
130 823 1
130 907 1
130 1099 1
130 1289 1
130 1401 1
130 1498 1
130 1678 1
131 126 1
131 185 1
131 311 1
131 548 1
131 692 1
131 824 1
131 908 1
131 1100 1
131 1290 1
131 1451 1
131 1499 1
131 1679 1
132 127 1
132 235 1
132 312 1
132 549 1
132 693 1
132 825 1
132 909 1
132 1101 1
132 1291 1
132 1354 1
132 1500 1
132 1680 1
133 128 1
133 285 1
133 313 1
133 550 1
133 694 1
133 826 1
133 910 1
133 1102 1
133 1292 1
133 1404 1
133 1501 1
133 1681 1
134 129 1
134 188 1
134 314 1
134 551 1
134 695 1
134 827 1
134 911 1
134 1103 1
134 1293 1
134 1454 1
134 1502 1
134 1682 1
135 130 1
135 238 1
135 315 1
135 552 1
135 696 1
135 828 1
135 912 1
135 1104 1
135 1294 1
135 1357 1
135 1503 1
135 1683 1
136 131 1
136 288 1
136 316 1
136 553 1
136 697 1
136 829 1
136 913 1
136 1105 1
136 1295 1
136 1407 1
136 1504 1
136 1684 1
137 132 1
137 191 1
137 317 1
137 554 1
137 698 1
137 830 1
137 914 1
137 1106 1
137 1296 1
137 1457 1
137 1505 1
137 1685 1
138 133 1
138 241 1
138 318 1
138 555 1
138 699 1
138 831 1
138 915 1
138 1107 1
138 1297 1
138 1360 1
138 1506 1
138 1686 1
139 134 1
139 291 1
139 319 1
139 556 1
139 700 1
139 832 1
139 916 1
139 1108 1
139 1298 1
139 1410 1
139 1507 1
139 1687 1
140 135 1
140 194 1
140 320 1
140 557 1
140 701 1
140 833 1
140 917 1
140 1109 1
140 1299 1
140 1460 1
140 1508 1
140 1688 1
141 136 1
141 244 1
141 321 1
141 558 1
141 702 1
141 834 1
141 918 1
141 1110 1
141 1300 1
141 1363 1
141 1509 1
141 1689 1
142 137 1
142 294 1
142 322 1
142 559 1
142 703 1
142 835 1
142 919 1
142 1111 1
142 1301 1
142 1413 1
142 1510 1
142 1690 1
143 138 1
143 197 1
143 323 1
143 560 1
143 704 1
143 836 1
143 920 1
143 1112 1
143 1302 1
143 1463 1
143 1511 1
143 1691 1
144 139 1
144 247 1
144 324 1
144 561 1
144 705 1
144 837 1
144 921 1
144 1113 1
144 1303 1
144 1366 1
144 1512 1
144 1692 1
145 140 1
145 150 1
145 325 1
145 562 1
145 706 1
145 838 1
145 922 1
145 1114 1
145 1304 1
145 1416 1
145 1513 1
145 1693 1
146 141 1
146 200 1
146 326 1
146 563 1
146 707 1
146 839 1
146 923 1
146 1115 1
146 1305 1
146 1466 1
146 1514 1
146 1694 1
147 142 1
147 250 1
147 327 1
147 564 1
147 708 1
147 840 1
147 924 1
147 1116 1
147 1306 1
147 1369 1
147 1515 1
147 1695 1
148 106 1
148 290 1
148 300 1
148 475 1
148 712 1
148 856 1
148 961 1
148 1072 1
148 1264 1
148 1454 1
148 1566 1
148 1663 1
149 107 1
149 291 1
149 350 1
149 476 1
149 713 1
149 857 1
149 962 1
149 1073 1
149 1265 1
149 1455 1
149 1616 1
149 1664 1
150 108 1
150 292 1
150 400 1
150 477 1
150 714 1
150 858 1
150 963 1
150 1074 1
150 1266 1
150 1456 1
150 1519 1
150 1665 1
151 109 1
151 293 1
151 303 1
151 478 1
151 715 1
151 859 1
151 964 1
151 1075 1
151 1267 1
151 1457 1
151 1569 1
151 1666 1
152 110 1
152 294 1
152 353 1
152 479 1
152 716 1
152 860 1
152 965 1
152 1076 1
152 1268 1
152 1458 1
152 1472 1
152 1667 1
153 111 1
153 148 1
153 403 1
153 480 1
153 717 1
153 861 1
153 966 1
153 1077 1
153 1269 1
153 1459 1
153 1522 1
153 1668 1
154 112 1
154 149 1
154 306 1
154 481 1
154 718 1
154 862 1
154 967 1
154 1078 1
154 1270 1
154 1460 1
154 1572 1
154 1669 1
155 113 1
155 150 1
155 356 1
155 482 1
155 719 1
155 863 1
155 968 1
155 1079 1
155 1271 1
155 1461 1
155 1475 1
155 1670 1
156 114 1
156 151 1
156 406 1
156 483 1
156 720 1
156 864 1
156 969 1
156 1080 1
156 1272 1
156 1462 1
156 1525 1
156 1671 1
157 115 1
157 152 1
157 309 1
157 484 1
157 721 1
157 865 1
157 970 1
157 1081 1
157 1273 1
157 1463 1
157 1575 1
157 1672 1
158 116 1
158 153 1
158 359 1
158 485 1
158 722 1
158 866 1
158 971 1
158 1082 1
158 1274 1
158 1464 1
158 1478 1
158 1673 1
159 117 1
159 154 1
159 409 1
159 486 1
159 723 1
159 867 1
159 972 1
159 1083 1
159 1275 1
159 1465 1
159 1528 1
159 1674 1
160 118 1
160 155 1
160 312 1
160 487 1
160 724 1
160 868 1
160 973 1
160 1084 1
160 1276 1
160 1466 1
160 1578 1
160 1675 1
161 119 1
161 156 1
161 362 1
161 488 1
161 725 1
161 869 1
161 974 1
161 1085 1
161 1277 1
161 1467 1
161 1481 1
161 1676 1
162 120 1
162 157 1
162 412 1
162 489 1
162 726 1
162 870 1
162 975 1
162 1086 1
162 1278 1
162 1468 1
162 1531 1
162 1677 1
163 121 1
163 158 1
163 315 1
163 490 1
163 727 1
163 871 1
163 976 1
163 1087 1
163 1279 1
163 1469 1
163 1581 1
163 1678 1
164 122 1
164 159 1
164 365 1
164 491 1
164 728 1
164 872 1
164 977 1
164 1088 1
164 1280 1
164 1470 1
164 1484 1
164 1679 1
165 123 1
165 160 1
165 415 1
165 492 1
165 729 1
165 873 1
165 978 1
165 1089 1
165 1281 1
165 1324 1
165 1534 1
165 1680 1
166 124 1
166 161 1
166 318 1
166 493 1
166 730 1
166 874 1
166 979 1
166 1090 1
166 1282 1
166 1325 1
166 1584 1
166 1681 1
167 125 1
167 162 1
167 368 1
167 494 1
167 731 1
167 875 1
167 980 1
167 1091 1
167 1283 1
167 1326 1
167 1487 1
167 1682 1
168 126 1
168 163 1
168 418 1
168 495 1
168 732 1
168 876 1
168 981 1
168 1092 1
168 1284 1
168 1327 1
168 1537 1
168 1683 1
169 127 1
169 164 1
169 321 1
169 496 1
169 733 1
169 877 1
169 982 1
169 1093 1
169 1285 1
169 1328 1
169 1587 1
169 1684 1
170 128 1
170 165 1
170 371 1
170 497 1
170 734 1
170 878 1
170 983 1
170 1094 1
170 1286 1
170 1329 1
170 1490 1
170 1685 1
171 129 1
171 166 1
171 421 1
171 498 1
171 735 1
171 879 1
171 984 1
171 1095 1
171 1287 1
171 1330 1
171 1540 1
171 1686 1
172 130 1
172 167 1
172 324 1
172 499 1
172 589 1
172 880 1
172 985 1
172 1096 1
172 1288 1
172 1331 1
172 1590 1
172 1687 1
173 131 1
173 168 1
173 374 1
173 500 1
173 590 1
173 881 1
173 986 1
173 1097 1
173 1289 1
173 1332 1
173 1493 1
173 1688 1
174 132 1
174 169 1
174 424 1
174 501 1
174 591 1
174 882 1
174 987 1
174 1098 1
174 1290 1
174 1333 1
174 1543 1
174 1689 1
175 133 1
175 170 1
175 327 1
175 502 1
175 592 1
175 736 1
175 988 1
175 1099 1
175 1291 1
175 1334 1
175 1593 1
175 1690 1
176 134 1
176 171 1
176 377 1
176 503 1
176 593 1
176 737 1
176 989 1
176 1100 1
176 1292 1
176 1335 1
176 1496 1
176 1691 1
177 135 1
177 172 1
177 427 1
177 504 1
177 594 1
177 738 1
177 990 1
177 1101 1
177 1293 1
177 1336 1
177 1546 1
177 1692 1
178 136 1
178 173 1
178 330 1
178 505 1
178 595 1
178 739 1
178 991 1
178 1102 1
178 1294 1
178 1337 1
178 1596 1
178 1693 1
179 137 1
179 174 1
179 380 1
179 506 1
179 596 1
179 740 1
179 992 1
179 1103 1
179 1295 1
179 1338 1
179 1499 1
179 1694 1
180 138 1
180 175 1
180 430 1
180 507 1
180 597 1
180 741 1
180 993 1
180 1104 1
180 1296 1
180 1339 1
180 1549 1
180 1695 1
181 139 1
181 176 1
181 333 1
181 508 1
181 598 1
181 742 1
181 994 1
181 1105 1
181 1297 1
181 1340 1
181 1599 1
181 1696 1
182 140 1
182 177 1
182 383 1
182 509 1
182 599 1
182 743 1
182 995 1
182 1106 1
182 1298 1
182 1341 1
182 1502 1
182 1697 1
183 141 1
183 178 1
183 433 1
183 510 1
183 600 1
183 744 1
183 996 1
183 1107 1
183 1299 1
183 1342 1
183 1552 1
183 1698 1
184 142 1
184 179 1
184 336 1
184 511 1
184 601 1
184 745 1
184 997 1
184 1108 1
184 1300 1
184 1343 1
184 1602 1
184 1699 1
185 143 1
185 180 1
185 386 1
185 512 1
185 602 1
185 746 1
185 998 1
185 1109 1
185 1301 1
185 1344 1
185 1505 1
185 1700 1
186 144 1
186 181 1
186 436 1
186 513 1
186 603 1
186 747 1
186 999 1
186 1110 1
186 1302 1
186 1345 1
186 1555 1
186 1701 1
187 145 1
187 182 1
187 339 1
187 514 1
187 604 1
187 748 1
187 1000 1
187 1111 1
187 1303 1
187 1346 1
187 1605 1
187 1702 1
188 146 1
188 183 1
188 389 1
188 515 1
188 605 1
188 749 1
188 1001 1
188 1112 1
188 1304 1
188 1347 1
188 1508 1
188 1703 1
189 147 1
189 184 1
189 439 1
189 516 1
189 606 1
189 750 1
189 1002 1
189 1113 1
189 1305 1
189 1348 1
189 1558 1
189 1704 1
190 1 1
190 185 1
190 342 1
190 517 1
190 607 1
190 751 1
190 1003 1
190 1114 1
190 1306 1
190 1349 1
190 1608 1
190 1705 1
191 2 1
191 186 1
191 392 1
191 518 1
191 608 1
191 752 1
191 1004 1
191 1115 1
191 1307 1
191 1350 1
191 1511 1
191 1706 1
192 3 1
192 187 1
192 295 1
192 519 1
192 609 1
192 753 1
192 1005 1
192 1116 1
192 1308 1
192 1351 1
192 1561 1
192 1707 1
193 4 1
193 188 1
193 345 1
193 520 1
193 610 1
193 754 1
193 1006 1
193 1117 1
193 1309 1
193 1352 1
193 1611 1
193 1708 1
194 5 1
194 189 1
194 395 1
194 521 1
194 611 1
194 755 1
194 1007 1
194 1118 1
194 1310 1
194 1353 1
194 1514 1
194 1709 1
195 6 1
195 190 1
195 298 1
195 522 1
195 612 1
195 756 1
195 1008 1
195 1119 1
195 1311 1
195 1354 1
195 1564 1
195 1710 1
196 7 1
196 191 1
196 348 1
196 523 1
196 613 1
196 757 1
196 1009 1
196 1120 1
196 1312 1
196 1355 1
196 1614 1
196 1711 1
197 8 1
197 192 1
197 398 1
197 524 1
197 614 1
197 758 1
197 1010 1
197 1121 1
197 1313 1
197 1356 1
197 1517 1
197 1712 1
198 9 1
198 193 1
198 301 1
198 525 1
198 615 1
198 759 1
198 1011 1
198 1122 1
198 1314 1
198 1357 1
198 1567 1
198 1713 1
199 10 1
199 194 1
199 351 1
199 526 1
199 616 1
199 760 1
199 1012 1
199 1123 1
199 1315 1
199 1358 1
199 1617 1
199 1714 1
200 11 1
200 195 1
200 401 1
200 527 1
200 617 1
200 761 1
200 1013 1
200 1124 1
200 1316 1
200 1359 1
200 1520 1
200 1715 1
201 12 1
201 196 1
201 304 1
201 528 1
201 618 1
201 762 1
201 1014 1
201 1125 1
201 1317 1
201 1360 1
201 1570 1
201 1716 1
202 13 1
202 197 1
202 354 1
202 529 1
202 619 1
202 763 1
202 1015 1
202 1126 1
202 1318 1
202 1361 1
202 1473 1
202 1717 1
203 14 1
203 198 1
203 404 1
203 530 1
203 620 1
203 764 1
203 1016 1
203 1127 1
203 1319 1
203 1362 1
203 1523 1
203 1718 1
204 15 1
204 199 1
204 307 1
204 531 1
204 621 1
204 765 1
204 1017 1
204 1128 1
204 1320 1
204 1363 1
204 1573 1
204 1719 1
205 16 1
205 200 1
205 357 1
205 532 1
205 622 1
205 766 1
205 1018 1
205 1129 1
205 1321 1
205 1364 1
205 1476 1
205 1720 1
206 17 1
206 201 1
206 407 1
206 533 1
206 623 1
206 767 1
206 1019 1
206 1130 1
206 1322 1
206 1365 1
206 1526 1
206 1721 1
207 18 1
207 202 1
207 310 1
207 534 1
207 624 1
207 768 1
207 1020 1
207 1131 1
207 1323 1
207 1366 1
207 1576 1
207 1722 1
208 19 1
208 203 1
208 360 1
208 535 1
208 625 1
208 769 1
208 1021 1
208 1132 1
208 1177 1
208 1367 1
208 1479 1
208 1723 1
209 20 1
209 204 1
209 410 1
209 536 1
209 626 1
209 770 1
209 1022 1
209 1133 1
209 1178 1
209 1368 1
209 1529 1
209 1724 1
210 21 1
210 205 1
210 313 1
210 537 1
210 627 1
210 771 1
210 1023 1
210 1134 1
210 1179 1
210 1369 1
210 1579 1
210 1725 1
211 22 1
211 206 1
211 363 1
211 538 1
211 628 1
211 772 1
211 1024 1
211 1135 1
211 1180 1
211 1370 1
211 1482 1
211 1726 1
212 23 1
212 207 1
212 413 1
212 539 1
212 629 1
212 773 1
212 1025 1
212 1136 1
212 1181 1
212 1371 1
212 1532 1
212 1727 1
213 24 1
213 208 1
213 316 1
213 540 1
213 630 1
213 774 1
213 1026 1
213 1137 1
213 1182 1
213 1372 1
213 1582 1
213 1728 1
214 25 1
214 209 1
214 366 1
214 541 1
214 631 1
214 775 1
214 1027 1
214 1138 1
214 1183 1
214 1373 1
214 1485 1
214 1729 1
215 26 1
215 210 1
215 416 1
215 542 1
215 632 1
215 776 1
215 1028 1
215 1139 1
215 1184 1
215 1374 1
215 1535 1
215 1730 1
216 27 1
216 211 1
216 319 1
216 543 1
216 633 1
216 777 1
216 1029 1
216 1140 1
216 1185 1
216 1375 1
216 1585 1
216 1731 1
217 28 1
217 212 1
217 369 1
217 544 1
217 634 1
217 778 1
217 883 1
217 1141 1
217 1186 1
217 1376 1
217 1488 1
217 1732 1
218 29 1
218 213 1
218 419 1
218 545 1
218 635 1
218 779 1
218 884 1
218 1142 1
218 1187 1
218 1377 1
218 1538 1
218 1733 1
219 30 1
219 214 1
219 322 1
219 546 1
219 636 1
219 780 1
219 885 1
219 1143 1
219 1188 1
219 1378 1
219 1588 1
219 1734 1
220 31 1
220 215 1
220 372 1
220 547 1
220 637 1
220 781 1
220 886 1
220 1144 1
220 1189 1
220 1379 1
220 1491 1
220 1735 1
221 32 1
221 216 1
221 422 1
221 548 1
221 638 1
221 782 1
221 887 1
221 1145 1
221 1190 1
221 1380 1
221 1541 1
221 1736 1
222 33 1
222 217 1
222 325 1
222 549 1
222 639 1
222 783 1
222 888 1
222 1146 1
222 1191 1
222 1381 1
222 1591 1
222 1737 1
223 34 1
223 218 1
223 375 1
223 550 1
223 640 1
223 784 1
223 889 1
223 1147 1
223 1192 1
223 1382 1
223 1494 1
223 1738 1
224 35 1
224 219 1
224 425 1
224 551 1
224 641 1
224 785 1
224 890 1
224 1148 1
224 1193 1
224 1383 1
224 1544 1
224 1739 1
225 36 1
225 220 1
225 328 1
225 552 1
225 642 1
225 786 1
225 891 1
225 1149 1
225 1194 1
225 1384 1
225 1594 1
225 1740 1
226 37 1
226 221 1
226 378 1
226 553 1
226 643 1
226 787 1
226 892 1
226 1150 1
226 1195 1
226 1385 1
226 1497 1
226 1741 1
227 38 1
227 222 1
227 428 1
227 554 1
227 644 1
227 788 1
227 893 1
227 1151 1
227 1196 1
227 1386 1
227 1547 1
227 1742 1
228 39 1
228 223 1
228 331 1
228 555 1
228 645 1
228 789 1
228 894 1
228 1152 1
228 1197 1
228 1387 1
228 1597 1
228 1743 1
229 40 1
229 224 1
229 381 1
229 556 1
229 646 1
229 790 1
229 895 1
229 1153 1
229 1198 1
229 1388 1
229 1500 1
229 1744 1
230 41 1
230 225 1
230 431 1
230 557 1
230 647 1
230 791 1
230 896 1
230 1154 1
230 1199 1
230 1389 1
230 1550 1
230 1745 1
231 42 1
231 226 1
231 334 1
231 558 1
231 648 1
231 792 1
231 897 1
231 1155 1
231 1200 1
231 1390 1
231 1600 1
231 1746 1
232 43 1
232 227 1
232 384 1
232 559 1
232 649 1
232 793 1
232 898 1
232 1156 1
232 1201 1
232 1391 1
232 1503 1
232 1747 1
233 44 1
233 228 1
233 434 1
233 560 1
233 650 1
233 794 1
233 899 1
233 1157 1
233 1202 1
233 1392 1
233 1553 1
233 1748 1
234 45 1
234 229 1
234 337 1
234 561 1
234 651 1
234 795 1
234 900 1
234 1158 1
234 1203 1
234 1393 1
234 1603 1
234 1749 1
235 46 1
235 230 1
235 387 1
235 562 1
235 652 1
235 796 1
235 901 1
235 1159 1
235 1204 1
235 1394 1
235 1506 1
235 1750 1
236 47 1
236 231 1
236 437 1
236 563 1
236 653 1
236 797 1
236 902 1
236 1160 1
236 1205 1
236 1395 1
236 1556 1
236 1751 1
237 48 1
237 232 1
237 340 1
237 564 1
237 654 1
237 798 1
237 903 1
237 1161 1
237 1206 1
237 1396 1
237 1606 1
237 1752 1
238 49 1
238 233 1
238 390 1
238 565 1
238 655 1
238 799 1
238 904 1
238 1162 1
238 1207 1
238 1397 1
238 1509 1
238 1753 1
239 50 1
239 234 1
239 440 1
239 566 1
239 656 1
239 800 1
239 905 1
239 1163 1
239 1208 1
239 1398 1
239 1559 1
239 1754 1
240 51 1
240 235 1
240 343 1
240 567 1
240 657 1
240 801 1
240 906 1
240 1164 1
240 1209 1
240 1399 1
240 1609 1
240 1755 1
241 52 1
241 236 1
241 393 1
241 568 1
241 658 1
241 802 1
241 907 1
241 1165 1
241 1210 1
241 1400 1
241 1512 1
241 1756 1
242 53 1
242 237 1
242 296 1
242 569 1
242 659 1
242 803 1
242 908 1
242 1166 1
242 1211 1
242 1401 1
242 1562 1
242 1757 1
243 54 1
243 238 1
243 346 1
243 570 1
243 660 1
243 804 1
243 909 1
243 1167 1
243 1212 1
243 1402 1
243 1612 1
243 1758 1
244 55 1
244 239 1
244 396 1
244 571 1
244 661 1
244 805 1
244 910 1
244 1168 1
244 1213 1
244 1403 1
244 1515 1
244 1759 1
245 56 1
245 240 1
245 299 1
245 572 1
245 662 1
245 806 1
245 911 1
245 1169 1
245 1214 1
245 1404 1
245 1565 1
245 1760 1
246 57 1
246 241 1
246 349 1
246 573 1
246 663 1
246 807 1
246 912 1
246 1170 1
246 1215 1
246 1405 1
246 1615 1
246 1761 1
247 58 1
247 242 1
247 399 1
247 574 1
247 664 1
247 808 1
247 913 1
247 1171 1
247 1216 1
247 1406 1
247 1518 1
247 1762 1
248 59 1
248 243 1
248 302 1
248 575 1
248 665 1
248 809 1
248 914 1
248 1172 1
248 1217 1
248 1407 1
248 1568 1
248 1763 1
249 60 1
249 244 1
249 352 1
249 576 1
249 666 1
249 810 1
249 915 1
249 1173 1
249 1218 1
249 1408 1
249 1471 1
249 1764 1
250 61 1
250 245 1
250 402 1
250 577 1
250 667 1
250 811 1
250 916 1
250 1174 1
250 1219 1
250 1409 1
250 1521 1
250 1618 1
251 62 1
251 246 1
251 305 1
251 578 1
251 668 1
251 812 1
251 917 1
251 1175 1
251 1220 1
251 1410 1
251 1571 1
251 1619 1
252 63 1
252 247 1
252 355 1
252 579 1
252 669 1
252 813 1
252 918 1
252 1176 1
252 1221 1
252 1411 1
252 1474 1
252 1620 1
253 64 1
253 248 1
253 405 1
253 580 1
253 670 1
253 814 1
253 919 1
253 1030 1
253 1222 1
253 1412 1
253 1524 1
253 1621 1
254 65 1
254 249 1
254 308 1
254 581 1
254 671 1
254 815 1
254 920 1
254 1031 1
254 1223 1
254 1413 1
254 1574 1
254 1622 1
255 66 1
255 250 1
255 358 1
255 582 1
255 672 1
255 816 1
255 921 1
255 1032 1
255 1224 1
255 1414 1
255 1477 1
255 1623 1
256 67 1
256 251 1
256 408 1
256 583 1
256 673 1
256 817 1
256 922 1
256 1033 1
256 1225 1
256 1415 1
256 1527 1
256 1624 1
257 68 1
257 252 1
257 311 1
257 584 1
257 674 1
257 818 1
257 923 1
257 1034 1
257 1226 1
257 1416 1
257 1577 1
257 1625 1
258 69 1
258 253 1
258 361 1
258 585 1
258 675 1
258 819 1
258 924 1
258 1035 1
258 1227 1
258 1417 1
258 1480 1
258 1626 1
259 70 1
259 254 1
259 411 1
259 586 1
259 676 1
259 820 1
259 925 1
259 1036 1
259 1228 1
259 1418 1
259 1530 1
259 1627 1
260 71 1
260 255 1
260 314 1
260 587 1
260 677 1
260 821 1
260 926 1
260 1037 1
260 1229 1
260 1419 1
260 1580 1
260 1628 1
261 72 1
261 256 1
261 364 1
261 588 1
261 678 1
261 822 1
261 927 1
261 1038 1
261 1230 1
261 1420 1
261 1483 1
261 1629 1
262 73 1
262 257 1
262 414 1
262 442 1
262 679 1
262 823 1
262 928 1
262 1039 1
262 1231 1
262 1421 1
262 1533 1
262 1630 1
263 74 1
263 258 1
263 317 1
263 443 1
263 680 1
263 824 1
263 929 1
263 1040 1
263 1232 1
263 1422 1
263 1583 1
263 1631 1
264 75 1
264 259 1
264 367 1
264 444 1
264 681 1
264 825 1
264 930 1
264 1041 1
264 1233 1
264 1423 1
264 1486 1
264 1632 1
265 76 1
265 260 1
265 417 1
265 445 1
265 682 1
265 826 1
265 931 1
265 1042 1
265 1234 1
265 1424 1
265 1536 1
265 1633 1
266 77 1
266 261 1
266 320 1
266 446 1
266 683 1
266 827 1
266 932 1
266 1043 1
266 1235 1
266 1425 1
266 1586 1
266 1634 1
267 78 1
267 262 1
267 370 1
267 447 1
267 684 1
267 828 1
267 933 1
267 1044 1
267 1236 1
267 1426 1
267 1489 1
267 1635 1
268 79 1
268 263 1
268 420 1
268 448 1
268 685 1
268 829 1
268 934 1
268 1045 1
268 1237 1
268 1427 1
268 1539 1
268 1636 1
269 80 1
269 264 1
269 323 1
269 449 1
269 686 1
269 830 1
269 935 1
269 1046 1
269 1238 1
269 1428 1
269 1589 1
269 1637 1
270 81 1
270 265 1
270 373 1
270 450 1
270 687 1
270 831 1
270 936 1
270 1047 1
270 1239 1
270 1429 1
270 1492 1
270 1638 1
271 82 1
271 266 1
271 423 1
271 451 1
271 688 1
271 832 1
271 937 1
271 1048 1
271 1240 1
271 1430 1
271 1542 1
271 1639 1
272 83 1
272 267 1
272 326 1
272 452 1
272 689 1
272 833 1
272 938 1
272 1049 1
272 1241 1
272 1431 1
272 1592 1
272 1640 1
273 84 1
273 268 1
273 376 1
273 453 1
273 690 1
273 834 1
273 939 1
273 1050 1
273 1242 1
273 1432 1
273 1495 1
273 1641 1
274 85 1
274 269 1
274 426 1
274 454 1
274 691 1
274 835 1
274 940 1
274 1051 1
274 1243 1
274 1433 1
274 1545 1
274 1642 1
275 86 1
275 270 1
275 329 1
275 455 1
275 692 1
275 836 1
275 941 1
275 1052 1
275 1244 1
275 1434 1
275 1595 1
275 1643 1
276 87 1
276 271 1
276 379 1
276 456 1
276 693 1
276 837 1
276 942 1
276 1053 1
276 1245 1
276 1435 1
276 1498 1
276 1644 1
277 88 1
277 272 1
277 429 1
277 457 1
277 694 1
277 838 1
277 943 1
277 1054 1
277 1246 1
277 1436 1
277 1548 1
277 1645 1
278 89 1
278 273 1
278 332 1
278 458 1
278 695 1
278 839 1
278 944 1
278 1055 1
278 1247 1
278 1437 1
278 1598 1
278 1646 1
279 90 1
279 274 1
279 382 1
279 459 1
279 696 1
279 840 1
279 945 1
279 1056 1
279 1248 1
279 1438 1
279 1501 1
279 1647 1
280 91 1
280 275 1
280 432 1
280 460 1
280 697 1
280 841 1
280 946 1
280 1057 1
280 1249 1
280 1439 1
280 1551 1
280 1648 1
281 92 1
281 276 1
281 335 1
281 461 1
281 698 1
281 842 1
281 947 1
281 1058 1
281 1250 1
281 1440 1
281 1601 1
281 1649 1
282 93 1
282 277 1
282 385 1
282 462 1
282 699 1
282 843 1
282 948 1
282 1059 1
282 1251 1
282 1441 1
282 1504 1
282 1650 1
283 94 1
283 278 1
283 435 1
283 463 1
283 700 1
283 844 1
283 949 1
283 1060 1
283 1252 1
283 1442 1
283 1554 1
283 1651 1
284 95 1
284 279 1
284 338 1
284 464 1
284 701 1
284 845 1
284 950 1
284 1061 1
284 1253 1
284 1443 1
284 1604 1
284 1652 1
285 96 1
285 280 1
285 388 1
285 465 1
285 702 1
285 846 1
285 951 1
285 1062 1
285 1254 1
285 1444 1
285 1507 1
285 1653 1
286 97 1
286 281 1
286 438 1
286 466 1
286 703 1
286 847 1
286 952 1
286 1063 1
286 1255 1
286 1445 1
286 1557 1
286 1654 1
287 98 1
287 282 1
287 341 1
287 467 1
287 704 1
287 848 1
287 953 1
287 1064 1
287 1256 1
287 1446 1
287 1607 1
287 1655 1
288 99 1
288 283 1
288 391 1
288 468 1
288 705 1
288 849 1
288 954 1
288 1065 1
288 1257 1
288 1447 1
288 1510 1
288 1656 1
289 100 1
289 284 1
289 441 1
289 469 1
289 706 1
289 850 1
289 955 1
289 1066 1
289 1258 1
289 1448 1
289 1560 1
289 1657 1
290 101 1
290 285 1
290 344 1
290 470 1
290 707 1
290 851 1
290 956 1
290 1067 1
290 1259 1
290 1449 1
290 1610 1
290 1658 1
291 102 1
291 286 1
291 394 1
291 471 1
291 708 1
291 852 1
291 957 1
291 1068 1
291 1260 1
291 1450 1
291 1513 1
291 1659 1
292 103 1
292 287 1
292 297 1
292 472 1
292 709 1
292 853 1
292 958 1
292 1069 1
292 1261 1
292 1451 1
292 1563 1
292 1660 1
293 104 1
293 288 1
293 347 1
293 473 1
293 710 1
293 854 1
293 959 1
293 1070 1
293 1262 1
293 1452 1
293 1613 1
293 1661 1
294 105 1
294 289 1
294 397 1
294 474 1
294 711 1
294 855 1
294 960 1
294 1071 1
294 1263 1
294 1453 1
294 1516 1
294 1662 1
295 121 1
295 253 1
295 437 1
295 447 1
295 622 1
295 859 1
295 928 1
295 1108 1
295 1219 1
295 1411 1
295 1601 1
295 1713 1
296 122 1
296 254 1
296 438 1
296 497 1
296 623 1
296 860 1
296 929 1
296 1109 1
296 1220 1
296 1412 1
296 1602 1
296 1763 1
297 123 1
297 255 1
297 439 1
297 547 1
297 624 1
297 861 1
297 930 1
297 1110 1
297 1221 1
297 1413 1
297 1603 1
297 1666 1
298 124 1
298 256 1
298 440 1
298 450 1
298 625 1
298 862 1
298 931 1
298 1111 1
298 1222 1
298 1414 1
298 1604 1
298 1716 1
299 125 1
299 257 1
299 441 1
299 500 1
299 626 1
299 863 1
299 932 1
299 1112 1
299 1223 1
299 1415 1
299 1605 1
299 1619 1
300 126 1
300 258 1
300 295 1
300 550 1
300 627 1
300 864 1
300 933 1
300 1113 1
300 1224 1
300 1416 1
300 1606 1
300 1669 1
301 127 1
301 259 1
301 296 1
301 453 1
301 628 1
301 865 1
301 934 1
301 1114 1
301 1225 1
301 1417 1
301 1607 1
301 1719 1
302 128 1
302 260 1
302 297 1
302 503 1
302 629 1
302 866 1
302 935 1
302 1115 1
302 1226 1
302 1418 1
302 1608 1
302 1622 1
303 129 1
303 261 1
303 298 1
303 553 1
303 630 1
303 867 1
303 936 1
303 1116 1
303 1227 1
303 1419 1
303 1609 1
303 1672 1
304 130 1
304 262 1
304 299 1
304 456 1
304 631 1
304 868 1
304 937 1
304 1117 1
304 1228 1
304 1420 1
304 1610 1
304 1722 1
305 131 1
305 263 1
305 300 1
305 506 1
305 632 1
305 869 1
305 938 1
305 1118 1
305 1229 1
305 1421 1
305 1611 1
305 1625 1
306 132 1
306 264 1
306 301 1
306 556 1
306 633 1
306 870 1
306 939 1
306 1119 1
306 1230 1
306 1422 1
306 1612 1
306 1675 1
307 133 1
307 265 1
307 302 1
307 459 1
307 634 1
307 871 1
307 940 1
307 1120 1
307 1231 1
307 1423 1
307 1613 1
307 1725 1
308 134 1
308 266 1
308 303 1
308 509 1
308 635 1
308 872 1
308 941 1
308 1121 1
308 1232 1
308 1424 1
308 1614 1
308 1628 1
309 135 1
309 267 1
309 304 1
309 559 1
309 636 1
309 873 1
309 942 1
309 1122 1
309 1233 1
309 1425 1
309 1615 1
309 1678 1
310 136 1
310 268 1
310 305 1
310 462 1
310 637 1
310 874 1
310 943 1
310 1123 1
310 1234 1
310 1426 1
310 1616 1
310 1728 1
311 137 1
311 269 1
311 306 1
311 512 1
311 638 1
311 875 1
311 944 1
311 1124 1
311 1235 1
311 1427 1
311 1617 1
311 1631 1
312 138 1
312 270 1
312 307 1
312 562 1
312 639 1
312 876 1
312 945 1
312 1125 1
312 1236 1
312 1428 1
312 1471 1
312 1681 1
313 139 1
313 271 1
313 308 1
313 465 1
313 640 1
313 877 1
313 946 1
313 1126 1
313 1237 1
313 1429 1
313 1472 1
313 1731 1
314 140 1
314 272 1
314 309 1
314 515 1
314 641 1
314 878 1
314 947 1
314 1127 1
314 1238 1
314 1430 1
314 1473 1
314 1634 1
315 141 1
315 273 1
315 310 1
315 565 1
315 642 1
315 879 1
315 948 1
315 1128 1
315 1239 1
315 1431 1
315 1474 1
315 1684 1
316 142 1
316 274 1
316 311 1
316 468 1
316 643 1
316 880 1
316 949 1
316 1129 1
316 1240 1
316 1432 1
316 1475 1
316 1734 1
317 143 1
317 275 1
317 312 1
317 518 1
317 644 1
317 881 1
317 950 1
317 1130 1
317 1241 1
317 1433 1
317 1476 1
317 1637 1
318 144 1
318 276 1
318 313 1
318 568 1
318 645 1
318 882 1
318 951 1
318 1131 1
318 1242 1
318 1434 1
318 1477 1
318 1687 1
319 145 1
319 277 1
319 314 1
319 471 1
319 646 1
319 736 1
319 952 1
319 1132 1
319 1243 1
319 1435 1
319 1478 1
319 1737 1
320 146 1
320 278 1
320 315 1
320 521 1
320 647 1
320 737 1
320 953 1
320 1133 1
320 1244 1
320 1436 1
320 1479 1
320 1640 1
321 147 1
321 279 1
321 316 1
321 571 1
321 648 1
321 738 1
321 954 1
321 1134 1
321 1245 1
321 1437 1
321 1480 1
321 1690 1
322 1 1
322 280 1
322 317 1
322 474 1
322 649 1
322 739 1
322 955 1
322 1135 1
322 1246 1
322 1438 1
322 1481 1
322 1740 1
323 2 1
323 281 1
323 318 1
323 524 1
323 650 1
323 740 1
323 956 1
323 1136 1
323 1247 1
323 1439 1
323 1482 1
323 1643 1
324 3 1
324 282 1
324 319 1
324 574 1
324 651 1
324 741 1
324 957 1
324 1137 1
324 1248 1
324 1440 1
324 1483 1
324 1693 1
325 4 1
325 283 1
325 320 1
325 477 1
325 652 1
325 742 1
325 958 1
325 1138 1
325 1249 1
325 1441 1
325 1484 1
325 1743 1
326 5 1
326 284 1
326 321 1
326 527 1
326 653 1
326 743 1
326 959 1
326 1139 1
326 1250 1
326 1442 1
326 1485 1
326 1646 1
327 6 1
327 285 1
327 322 1
327 577 1
327 654 1
327 744 1
327 960 1
327 1140 1
327 1251 1
327 1443 1
327 1486 1
327 1696 1
328 7 1
328 286 1
328 323 1
328 480 1
328 655 1
328 745 1
328 961 1
328 1141 1
328 1252 1
328 1444 1
328 1487 1
328 1746 1
329 8 1
329 287 1
329 324 1
329 530 1
329 656 1
329 746 1
329 962 1
329 1142 1
329 1253 1
329 1445 1
329 1488 1
329 1649 1
330 9 1
330 288 1
330 325 1
330 580 1
330 657 1
330 747 1
330 963 1
330 1143 1
330 1254 1
330 1446 1
330 1489 1
330 1699 1
331 10 1
331 289 1
331 326 1
331 483 1
331 658 1
331 748 1
331 964 1
331 1144 1
331 1255 1
331 1447 1
331 1490 1
331 1749 1
332 11 1
332 290 1
332 327 1
332 533 1
332 659 1
332 749 1
332 965 1
332 1145 1
332 1256 1
332 1448 1
332 1491 1
332 1652 1
333 12 1
333 291 1
333 328 1
333 583 1
333 660 1
333 750 1
333 966 1
333 1146 1
333 1257 1
333 1449 1
333 1492 1
333 1702 1
334 13 1
334 292 1
334 329 1
334 486 1
334 661 1
334 751 1
334 967 1
334 1147 1
334 1258 1
334 1450 1
334 1493 1
334 1752 1
335 14 1
335 293 1
335 330 1
335 536 1
335 662 1
335 752 1
335 968 1
335 1148 1
335 1259 1
335 1451 1
335 1494 1
335 1655 1
336 15 1
336 294 1
336 331 1
336 586 1
336 663 1
336 753 1
336 969 1
336 1149 1
336 1260 1
336 1452 1
336 1495 1
336 1705 1
337 16 1
337 148 1
337 332 1
337 489 1
337 664 1
337 754 1
337 970 1
337 1150 1
337 1261 1
337 1453 1
337 1496 1
337 1755 1
338 17 1
338 149 1
338 333 1
338 539 1
338 665 1
338 755 1
338 971 1
338 1151 1
338 1262 1
338 1454 1
338 1497 1
338 1658 1
339 18 1
339 150 1
339 334 1
339 442 1
339 666 1
339 756 1
339 972 1
339 1152 1
339 1263 1
339 1455 1
339 1498 1
339 1708 1
340 19 1
340 151 1
340 335 1
340 492 1
340 667 1
340 757 1
340 973 1
340 1153 1
340 1264 1
340 1456 1
340 1499 1
340 1758 1
341 20 1
341 152 1
341 336 1
341 542 1
341 668 1
341 758 1
341 974 1
341 1154 1
341 1265 1
341 1457 1
341 1500 1
341 1661 1
342 21 1
342 153 1
342 337 1
342 445 1
342 669 1
342 759 1
342 975 1
342 1155 1
342 1266 1
342 1458 1
342 1501 1
342 1711 1
343 22 1
343 154 1
343 338 1
343 495 1
343 670 1
343 760 1
343 976 1
343 1156 1
343 1267 1
343 1459 1
343 1502 1
343 1761 1
344 23 1
344 155 1
344 339 1
344 545 1
344 671 1
344 761 1
344 977 1
344 1157 1
344 1268 1
344 1460 1
344 1503 1
344 1664 1
345 24 1
345 156 1
345 340 1
345 448 1
345 672 1
345 762 1
345 978 1
345 1158 1
345 1269 1
345 1461 1
345 1504 1
345 1714 1
346 25 1
346 157 1
346 341 1
346 498 1
346 673 1
346 763 1
346 979 1
346 1159 1
346 1270 1
346 1462 1
346 1505 1
346 1764 1
347 26 1
347 158 1
347 342 1
347 548 1
347 674 1
347 764 1
347 980 1
347 1160 1
347 1271 1
347 1463 1
347 1506 1
347 1667 1
348 27 1
348 159 1
348 343 1
348 451 1
348 675 1
348 765 1
348 981 1
348 1161 1
348 1272 1
348 1464 1
348 1507 1
348 1717 1
349 28 1
349 160 1
349 344 1
349 501 1
349 676 1
349 766 1
349 982 1
349 1162 1
349 1273 1
349 1465 1
349 1508 1
349 1620 1
350 29 1
350 161 1
350 345 1
350 551 1
350 677 1
350 767 1
350 983 1
350 1163 1
350 1274 1
350 1466 1
350 1509 1
350 1670 1
351 30 1
351 162 1
351 346 1
351 454 1
351 678 1
351 768 1
351 984 1
351 1164 1
351 1275 1
351 1467 1
351 1510 1
351 1720 1
352 31 1
352 163 1
352 347 1
352 504 1
352 679 1
352 769 1
352 985 1
352 1165 1
352 1276 1
352 1468 1
352 1511 1
352 1623 1
353 32 1
353 164 1
353 348 1
353 554 1
353 680 1
353 770 1
353 986 1
353 1166 1
353 1277 1
353 1469 1
353 1512 1
353 1673 1
354 33 1
354 165 1
354 349 1
354 457 1
354 681 1
354 771 1
354 987 1
354 1167 1
354 1278 1
354 1470 1
354 1513 1
354 1723 1
355 34 1
355 166 1
355 350 1
355 507 1
355 682 1
355 772 1
355 988 1
355 1168 1
355 1279 1
355 1324 1
355 1514 1
355 1626 1
356 35 1
356 167 1
356 351 1
356 557 1
356 683 1
356 773 1
356 989 1
356 1169 1
356 1280 1
356 1325 1
356 1515 1
356 1676 1
357 36 1
357 168 1
357 352 1
357 460 1
357 684 1
357 774 1
357 990 1
357 1170 1
357 1281 1
357 1326 1
357 1516 1
357 1726 1
358 37 1
358 169 1
358 353 1
358 510 1
358 685 1
358 775 1
358 991 1
358 1171 1
358 1282 1
358 1327 1
358 1517 1
358 1629 1
359 38 1
359 170 1
359 354 1
359 560 1
359 686 1
359 776 1
359 992 1
359 1172 1
359 1283 1
359 1328 1
359 1518 1
359 1679 1
360 39 1
360 171 1
360 355 1
360 463 1
360 687 1
360 777 1
360 993 1
360 1173 1
360 1284 1
360 1329 1
360 1519 1
360 1729 1
361 40 1
361 172 1
361 356 1
361 513 1
361 688 1
361 778 1
361 994 1
361 1174 1
361 1285 1
361 1330 1
361 1520 1
361 1632 1
362 41 1
362 173 1
362 357 1
362 563 1
362 689 1
362 779 1
362 995 1
362 1175 1
362 1286 1
362 1331 1
362 1521 1
362 1682 1
363 42 1
363 174 1
363 358 1
363 466 1
363 690 1
363 780 1
363 996 1
363 1176 1
363 1287 1
363 1332 1
363 1522 1
363 1732 1
364 43 1
364 175 1
364 359 1
364 516 1
364 691 1
364 781 1
364 997 1
364 1030 1
364 1288 1
364 1333 1
364 1523 1
364 1635 1
365 44 1
365 176 1
365 360 1
365 566 1
365 692 1
365 782 1
365 998 1
365 1031 1
365 1289 1
365 1334 1
365 1524 1
365 1685 1
366 45 1
366 177 1
366 361 1
366 469 1
366 693 1
366 783 1
366 999 1
366 1032 1
366 1290 1
366 1335 1
366 1525 1
366 1735 1
367 46 1
367 178 1
367 362 1
367 519 1
367 694 1
367 784 1
367 1000 1
367 1033 1
367 1291 1
367 1336 1
367 1526 1
367 1638 1
368 47 1
368 179 1
368 363 1
368 569 1
368 695 1
368 785 1
368 1001 1
368 1034 1
368 1292 1
368 1337 1
368 1527 1
368 1688 1
369 48 1
369 180 1
369 364 1
369 472 1
369 696 1
369 786 1
369 1002 1
369 1035 1
369 1293 1
369 1338 1
369 1528 1
369 1738 1
370 49 1
370 181 1
370 365 1
370 522 1
370 697 1
370 787 1
370 1003 1
370 1036 1
370 1294 1
370 1339 1
370 1529 1
370 1641 1
371 50 1
371 182 1
371 366 1
371 572 1
371 698 1
371 788 1
371 1004 1
371 1037 1
371 1295 1
371 1340 1
371 1530 1
371 1691 1
372 51 1
372 183 1
372 367 1
372 475 1
372 699 1
372 789 1
372 1005 1
372 1038 1
372 1296 1
372 1341 1
372 1531 1
372 1741 1
373 52 1
373 184 1
373 368 1
373 525 1
373 700 1
373 790 1
373 1006 1
373 1039 1
373 1297 1
373 1342 1
373 1532 1
373 1644 1
374 53 1
374 185 1
374 369 1
374 575 1
374 701 1
374 791 1
374 1007 1
374 1040 1
374 1298 1
374 1343 1
374 1533 1
374 1694 1
375 54 1
375 186 1
375 370 1
375 478 1
375 702 1
375 792 1
375 1008 1
375 1041 1
375 1299 1
375 1344 1
375 1534 1
375 1744 1
376 55 1
376 187 1
376 371 1
376 528 1
376 703 1
376 793 1
376 1009 1
376 1042 1
376 1300 1
376 1345 1
376 1535 1
376 1647 1
377 56 1
377 188 1
377 372 1
377 578 1
377 704 1
377 794 1
377 1010 1
377 1043 1
377 1301 1
377 1346 1
377 1536 1
377 1697 1
378 57 1
378 189 1
378 373 1
378 481 1
378 705 1
378 795 1
378 1011 1
378 1044 1
378 1302 1
378 1347 1
378 1537 1
378 1747 1
379 58 1
379 190 1
379 374 1
379 531 1
379 706 1
379 796 1
379 1012 1
379 1045 1
379 1303 1
379 1348 1
379 1538 1
379 1650 1
380 59 1
380 191 1
380 375 1
380 581 1
380 707 1
380 797 1
380 1013 1
380 1046 1
380 1304 1
380 1349 1
380 1539 1
380 1700 1
381 60 1
381 192 1
381 376 1
381 484 1
381 708 1
381 798 1
381 1014 1
381 1047 1
381 1305 1
381 1350 1
381 1540 1
381 1750 1
382 61 1
382 193 1
382 377 1
382 534 1
382 709 1
382 799 1
382 1015 1
382 1048 1
382 1306 1
382 1351 1
382 1541 1
382 1653 1
383 62 1
383 194 1
383 378 1
383 584 1
383 710 1
383 800 1
383 1016 1
383 1049 1
383 1307 1
383 1352 1
383 1542 1
383 1703 1
384 63 1
384 195 1
384 379 1
384 487 1
384 711 1
384 801 1
384 1017 1
384 1050 1
384 1308 1
384 1353 1
384 1543 1
384 1753 1
385 64 1
385 196 1
385 380 1
385 537 1
385 712 1
385 802 1
385 1018 1
385 1051 1
385 1309 1
385 1354 1
385 1544 1
385 1656 1
386 65 1
386 197 1
386 381 1
386 587 1
386 713 1
386 803 1
386 1019 1
386 1052 1
386 1310 1
386 1355 1
386 1545 1
386 1706 1
387 66 1
387 198 1
387 382 1
387 490 1
387 714 1
387 804 1
387 1020 1
387 1053 1
387 1311 1
387 1356 1
387 1546 1
387 1756 1
388 67 1
388 199 1
388 383 1
388 540 1
388 715 1
388 805 1
388 1021 1
388 1054 1
388 1312 1
388 1357 1
388 1547 1
388 1659 1
389 68 1
389 200 1
389 384 1
389 443 1
389 716 1
389 806 1
389 1022 1
389 1055 1
389 1313 1
389 1358 1
389 1548 1
389 1709 1
390 69 1
390 201 1
390 385 1
390 493 1
390 717 1
390 807 1
390 1023 1
390 1056 1
390 1314 1
390 1359 1
390 1549 1
390 1759 1
391 70 1
391 202 1
391 386 1
391 543 1
391 718 1
391 808 1
391 1024 1
391 1057 1
391 1315 1
391 1360 1
391 1550 1
391 1662 1
392 71 1
392 203 1
392 387 1
392 446 1
392 719 1
392 809 1
392 1025 1
392 1058 1
392 1316 1
392 1361 1
392 1551 1
392 1712 1
393 72 1
393 204 1
393 388 1
393 496 1
393 720 1
393 810 1
393 1026 1
393 1059 1
393 1317 1
393 1362 1
393 1552 1
393 1762 1
394 73 1
394 205 1
394 389 1
394 546 1
394 721 1
394 811 1
394 1027 1
394 1060 1
394 1318 1
394 1363 1
394 1553 1
394 1665 1
395 74 1
395 206 1
395 390 1
395 449 1
395 722 1
395 812 1
395 1028 1
395 1061 1
395 1319 1
395 1364 1
395 1554 1
395 1715 1
396 75 1
396 207 1
396 391 1
396 499 1
396 723 1
396 813 1
396 1029 1
396 1062 1
396 1320 1
396 1365 1
396 1555 1
396 1618 1
397 76 1
397 208 1
397 392 1
397 549 1
397 724 1
397 814 1
397 883 1
397 1063 1
397 1321 1
397 1366 1
397 1556 1
397 1668 1
398 77 1
398 209 1
398 393 1
398 452 1
398 725 1
398 815 1
398 884 1
398 1064 1
398 1322 1
398 1367 1
398 1557 1
398 1718 1
399 78 1
399 210 1
399 394 1
399 502 1
399 726 1
399 816 1
399 885 1
399 1065 1
399 1323 1
399 1368 1
399 1558 1
399 1621 1
400 79 1
400 211 1
400 395 1
400 552 1
400 727 1
400 817 1
400 886 1
400 1066 1
400 1177 1
400 1369 1
400 1559 1
400 1671 1
401 80 1
401 212 1
401 396 1
401 455 1
401 728 1
401 818 1
401 887 1
401 1067 1
401 1178 1
401 1370 1
401 1560 1
401 1721 1
402 81 1
402 213 1
402 397 1
402 505 1
402 729 1
402 819 1
402 888 1
402 1068 1
402 1179 1
402 1371 1
402 1561 1
402 1624 1
403 82 1
403 214 1
403 398 1
403 555 1
403 730 1
403 820 1
403 889 1
403 1069 1
403 1180 1
403 1372 1
403 1562 1
403 1674 1
404 83 1
404 215 1
404 399 1
404 458 1
404 731 1
404 821 1
404 890 1
404 1070 1
404 1181 1
404 1373 1
404 1563 1
404 1724 1
405 84 1
405 216 1
405 400 1
405 508 1
405 732 1
405 822 1
405 891 1
405 1071 1
405 1182 1
405 1374 1
405 1564 1
405 1627 1
406 85 1
406 217 1
406 401 1
406 558 1
406 733 1
406 823 1
406 892 1
406 1072 1
406 1183 1
406 1375 1
406 1565 1
406 1677 1
407 86 1
407 218 1
407 402 1
407 461 1
407 734 1
407 824 1
407 893 1
407 1073 1
407 1184 1
407 1376 1
407 1566 1
407 1727 1
408 87 1
408 219 1
408 403 1
408 511 1
408 735 1
408 825 1
408 894 1
408 1074 1
408 1185 1
408 1377 1
408 1567 1
408 1630 1
409 88 1
409 220 1
409 404 1
409 561 1
409 589 1
409 826 1
409 895 1
409 1075 1
409 1186 1
409 1378 1
409 1568 1
409 1680 1
410 89 1
410 221 1
410 405 1
410 464 1
410 590 1
410 827 1
410 896 1
410 1076 1
410 1187 1
410 1379 1
410 1569 1
410 1730 1
411 90 1
411 222 1
411 406 1
411 514 1
411 591 1
411 828 1
411 897 1
411 1077 1
411 1188 1
411 1380 1
411 1570 1
411 1633 1
412 91 1
412 223 1
412 407 1
412 564 1
412 592 1
412 829 1
412 898 1
412 1078 1
412 1189 1
412 1381 1
412 1571 1
412 1683 1
413 92 1
413 224 1
413 408 1
413 467 1
413 593 1
413 830 1
413 899 1
413 1079 1
413 1190 1
413 1382 1
413 1572 1
413 1733 1
414 93 1
414 225 1
414 409 1
414 517 1
414 594 1
414 831 1
414 900 1
414 1080 1
414 1191 1
414 1383 1
414 1573 1
414 1636 1
415 94 1
415 226 1
415 410 1
415 567 1
415 595 1
415 832 1
415 901 1
415 1081 1
415 1192 1
415 1384 1
415 1574 1
415 1686 1
416 95 1
416 227 1
416 411 1
416 470 1
416 596 1
416 833 1
416 902 1
416 1082 1
416 1193 1
416 1385 1
416 1575 1
416 1736 1
417 96 1
417 228 1
417 412 1
417 520 1
417 597 1
417 834 1
417 903 1
417 1083 1
417 1194 1
417 1386 1
417 1576 1
417 1639 1
418 97 1
418 229 1
418 413 1
418 570 1
418 598 1
418 835 1
418 904 1
418 1084 1
418 1195 1
418 1387 1
418 1577 1
418 1689 1
419 98 1
419 230 1
419 414 1
419 473 1
419 599 1
419 836 1
419 905 1
419 1085 1
419 1196 1
419 1388 1
419 1578 1
419 1739 1
420 99 1
420 231 1
420 415 1
420 523 1
420 600 1
420 837 1
420 906 1
420 1086 1
420 1197 1
420 1389 1
420 1579 1
420 1642 1
421 100 1
421 232 1
421 416 1
421 573 1
421 601 1
421 838 1
421 907 1
421 1087 1
421 1198 1
421 1390 1
421 1580 1
421 1692 1
422 101 1
422 233 1
422 417 1
422 476 1
422 602 1
422 839 1
422 908 1
422 1088 1
422 1199 1
422 1391 1
422 1581 1
422 1742 1
423 102 1
423 234 1
423 418 1
423 526 1
423 603 1
423 840 1
423 909 1
423 1089 1
423 1200 1
423 1392 1
423 1582 1
423 1645 1
424 103 1
424 235 1
424 419 1
424 576 1
424 604 1
424 841 1
424 910 1
424 1090 1
424 1201 1
424 1393 1
424 1583 1
424 1695 1
425 104 1
425 236 1
425 420 1
425 479 1
425 605 1
425 842 1
425 911 1
425 1091 1
425 1202 1
425 1394 1
425 1584 1
425 1745 1
426 105 1
426 237 1
426 421 1
426 529 1
426 606 1
426 843 1
426 912 1
426 1092 1
426 1203 1
426 1395 1
426 1585 1
426 1648 1
427 106 1
427 238 1
427 422 1
427 579 1
427 607 1
427 844 1
427 913 1
427 1093 1
427 1204 1
427 1396 1
427 1586 1
427 1698 1
428 107 1
428 239 1
428 423 1
428 482 1
428 608 1
428 845 1
428 914 1
428 1094 1
428 1205 1
428 1397 1
428 1587 1
428 1748 1
429 108 1
429 240 1
429 424 1
429 532 1
429 609 1
429 846 1
429 915 1
429 1095 1
429 1206 1
429 1398 1
429 1588 1
429 1651 1
430 109 1
430 241 1
430 425 1
430 582 1
430 610 1
430 847 1
430 916 1
430 1096 1
430 1207 1
430 1399 1
430 1589 1
430 1701 1
431 110 1
431 242 1
431 426 1
431 485 1
431 611 1
431 848 1
431 917 1
431 1097 1
431 1208 1
431 1400 1
431 1590 1
431 1751 1
432 111 1
432 243 1
432 427 1
432 535 1
432 612 1
432 849 1
432 918 1
432 1098 1
432 1209 1
432 1401 1
432 1591 1
432 1654 1
433 112 1
433 244 1
433 428 1
433 585 1
433 613 1
433 850 1
433 919 1
433 1099 1
433 1210 1
433 1402 1
433 1592 1
433 1704 1
434 113 1
434 245 1
434 429 1
434 488 1
434 614 1
434 851 1
434 920 1
434 1100 1
434 1211 1
434 1403 1
434 1593 1
434 1754 1
435 114 1
435 246 1
435 430 1
435 538 1
435 615 1
435 852 1
435 921 1
435 1101 1
435 1212 1
435 1404 1
435 1594 1
435 1657 1
436 115 1
436 247 1
436 431 1
436 588 1
436 616 1
436 853 1
436 922 1
436 1102 1
436 1213 1
436 1405 1
436 1595 1
436 1707 1
437 116 1
437 248 1
437 432 1
437 491 1
437 617 1
437 854 1
437 923 1
437 1103 1
437 1214 1
437 1406 1
437 1596 1
437 1757 1
438 117 1
438 249 1
438 433 1
438 541 1
438 618 1
438 855 1
438 924 1
438 1104 1
438 1215 1
438 1407 1
438 1597 1
438 1660 1
439 118 1
439 250 1
439 434 1
439 444 1
439 619 1
439 856 1
439 925 1
439 1105 1
439 1216 1
439 1408 1
439 1598 1
439 1710 1
440 119 1
440 251 1
440 435 1
440 494 1
440 620 1
440 857 1
440 926 1
440 1106 1
440 1217 1
440 1409 1
440 1599 1
440 1760 1
441 120 1
441 252 1
441 436 1
441 544 1
441 621 1
441 858 1
441 927 1
441 1107 1
441 1218 1
441 1410 1
441 1600 1
441 1663 1
