%%MatrixMarket matrix coordinate integer general
%
261 1044 3132
1 61 1
1 91 1
1 241 1
1 273 1
1 366 1
1 454 1
1 579 1
1 691 1
1 766 1
1 820 1
1 880 1
1 1023 1
2 62 1
2 92 1
2 242 1
2 332 1
2 367 1
2 455 1
2 580 1
2 692 1
2 767 1
2 821 1
2 881 1
2 995 1
3 63 1
3 93 1
3 243 1
3 304 1
3 368 1
3 456 1
3 581 1
3 693 1
3 768 1
3 822 1
3 882 1
3 967 1
4 64 1
4 94 1
4 244 1
4 276 1
4 369 1
4 457 1
4 582 1
4 694 1
4 769 1
4 823 1
4 883 1
4 1026 1
5 65 1
5 95 1
5 245 1
5 335 1
5 370 1
5 458 1
5 583 1
5 695 1
5 770 1
5 824 1
5 884 1
5 998 1
6 66 1
6 96 1
6 246 1
6 307 1
6 371 1
6 459 1
6 584 1
6 696 1
6 771 1
6 825 1
6 885 1
6 970 1
7 67 1
7 97 1
7 247 1
7 279 1
7 372 1
7 460 1
7 585 1
7 610 1
7 772 1
7 826 1
7 886 1
7 1029 1
8 68 1
8 98 1
8 248 1
8 338 1
8 373 1
8 461 1
8 586 1
8 611 1
8 773 1
8 827 1
8 887 1
8 1001 1
9 69 1
9 99 1
9 249 1
9 310 1
9 374 1
9 462 1
9 587 1
9 612 1
9 774 1
9 828 1
9 888 1
9 973 1
10 70 1
10 100 1
10 250 1
10 282 1
10 375 1
10 463 1
10 588 1
10 613 1
10 775 1
10 829 1
10 889 1
10 1032 1
11 71 1
11 101 1
11 251 1
11 341 1
11 376 1
11 464 1
11 589 1
11 614 1
11 776 1
11 830 1
11 890 1
11 1004 1
12 72 1
12 102 1
12 252 1
12 313 1
12 377 1
12 465 1
12 590 1
12 615 1
12 777 1
12 831 1
12 891 1
12 976 1
13 73 1
13 103 1
13 253 1
13 285 1
13 378 1
13 466 1
13 591 1
13 616 1
13 778 1
13 832 1
13 892 1
13 1035 1
14 74 1
14 104 1
14 254 1
14 344 1
14 379 1
14 467 1
14 592 1
14 617 1
14 779 1
14 833 1
14 893 1
14 1007 1
15 75 1
15 105 1
15 255 1
15 316 1
15 380 1
15 468 1
15 593 1
15 618 1
15 780 1
15 834 1
15 894 1
15 979 1
16 76 1
16 106 1
16 256 1
16 288 1
16 381 1
16 469 1
16 594 1
16 619 1
16 781 1
16 835 1
16 895 1
16 1038 1
17 77 1
17 107 1
17 257 1
17 347 1
17 382 1
17 470 1
17 595 1
17 620 1
17 782 1
17 836 1
17 896 1
17 1010 1
18 78 1
18 108 1
18 258 1
18 319 1
18 383 1
18 471 1
18 596 1
18 621 1
18 783 1
18 837 1
18 897 1
18 982 1
19 79 1
19 109 1
19 259 1
19 291 1
19 384 1
19 472 1
19 597 1
19 622 1
19 697 1
19 838 1
19 898 1
19 1041 1
20 80 1
20 110 1
20 260 1
20 263 1
20 385 1
20 473 1
20 598 1
20 623 1
20 698 1
20 839 1
20 899 1
20 1013 1
21 81 1
21 111 1
21 261 1
21 322 1
21 386 1
21 474 1
21 599 1
21 624 1
21 699 1
21 840 1
21 900 1
21 985 1
22 82 1
22 112 1
22 175 1
22 294 1
22 387 1
22 475 1
22 600 1
22 625 1
22 700 1
22 841 1
22 901 1
22 1044 1
23 83 1
23 113 1
23 176 1
23 266 1
23 388 1
23 476 1
23 601 1
23 626 1
23 701 1
23 842 1
23 902 1
23 1016 1
24 84 1
24 114 1
24 177 1
24 325 1
24 389 1
24 477 1
24 602 1
24 627 1
24 702 1
24 843 1
24 903 1
24 988 1
25 85 1
25 115 1
25 178 1
25 297 1
25 390 1
25 478 1
25 603 1
25 628 1
25 703 1
25 844 1
25 904 1
25 960 1
26 86 1
26 116 1
26 179 1
26 269 1
26 391 1
26 479 1
26 604 1
26 629 1
26 704 1
26 845 1
26 905 1
26 1019 1
27 87 1
27 117 1
27 180 1
27 328 1
27 392 1
27 480 1
27 605 1
27 630 1
27 705 1
27 846 1
27 906 1
27 991 1
28 1 1
28 118 1
28 181 1
28 300 1
28 393 1
28 481 1
28 606 1
28 631 1
28 706 1
28 847 1
28 907 1
28 963 1
29 2 1
29 119 1
29 182 1
29 272 1
29 394 1
29 482 1
29 607 1
29 632 1
29 707 1
29 848 1
29 908 1
29 1022 1
30 3 1
30 120 1
30 183 1
30 331 1
30 395 1
30 483 1
30 608 1
30 633 1
30 708 1
30 849 1
30 909 1
30 994 1
31 4 1
31 121 1
31 184 1
31 303 1
31 396 1
31 484 1
31 609 1
31 634 1
31 709 1
31 850 1
31 910 1
31 966 1
32 5 1
32 122 1
32 185 1
32 275 1
32 397 1
32 485 1
32 523 1
32 635 1
32 710 1
32 851 1
32 911 1
32 1025 1
33 6 1
33 123 1
33 186 1
33 334 1
33 398 1
33 486 1
33 524 1
33 636 1
33 711 1
33 852 1
33 912 1
33 997 1
34 7 1
34 124 1
34 187 1
34 306 1
34 399 1
34 487 1
34 525 1
34 637 1
34 712 1
34 853 1
34 913 1
34 969 1
35 8 1
35 125 1
35 188 1
35 278 1
35 400 1
35 488 1
35 526 1
35 638 1
35 713 1
35 854 1
35 914 1
35 1028 1
36 9 1
36 126 1
36 189 1
36 337 1
36 401 1
36 489 1
36 527 1
36 639 1
36 714 1
36 855 1
36 915 1
36 1000 1
37 10 1
37 127 1
37 190 1
37 309 1
37 402 1
37 490 1
37 528 1
37 640 1
37 715 1
37 856 1
37 916 1
37 972 1
38 11 1
38 128 1
38 191 1
38 281 1
38 403 1
38 491 1
38 529 1
38 641 1
38 716 1
38 857 1
38 917 1
38 1031 1
39 12 1
39 129 1
39 192 1
39 340 1
39 404 1
39 492 1
39 530 1
39 642 1
39 717 1
39 858 1
39 918 1
39 1003 1
40 13 1
40 130 1
40 193 1
40 312 1
40 405 1
40 493 1
40 531 1
40 643 1
40 718 1
40 859 1
40 919 1
40 975 1
41 14 1
41 131 1
41 194 1
41 284 1
41 406 1
41 494 1
41 532 1
41 644 1
41 719 1
41 860 1
41 920 1
41 1034 1
42 15 1
42 132 1
42 195 1
42 343 1
42 407 1
42 495 1
42 533 1
42 645 1
42 720 1
42 861 1
42 921 1
42 1006 1
43 16 1
43 133 1
43 196 1
43 315 1
43 408 1
43 496 1
43 534 1
43 646 1
43 721 1
43 862 1
43 922 1
43 978 1
44 17 1
44 134 1
44 197 1
44 287 1
44 409 1
44 497 1
44 535 1
44 647 1
44 722 1
44 863 1
44 923 1
44 1037 1
45 18 1
45 135 1
45 198 1
45 346 1
45 410 1
45 498 1
45 536 1
45 648 1
45 723 1
45 864 1
45 924 1
45 1009 1
46 19 1
46 136 1
46 199 1
46 318 1
46 411 1
46 499 1
46 537 1
46 649 1
46 724 1
46 865 1
46 925 1
46 981 1
47 20 1
47 137 1
47 200 1
47 290 1
47 412 1
47 500 1
47 538 1
47 650 1
47 725 1
47 866 1
47 926 1
47 1040 1
48 21 1
48 138 1
48 201 1
48 262 1
48 413 1
48 501 1
48 539 1
48 651 1
48 726 1
48 867 1
48 927 1
48 1012 1
49 22 1
49 139 1
49 202 1
49 321 1
49 414 1
49 502 1
49 540 1
49 652 1
49 727 1
49 868 1
49 928 1
49 984 1
50 23 1
50 140 1
50 203 1
50 293 1
50 415 1
50 503 1
50 541 1
50 653 1
50 728 1
50 869 1
50 929 1
50 1043 1
51 24 1
51 141 1
51 204 1
51 265 1
51 416 1
51 504 1
51 542 1
51 654 1
51 729 1
51 870 1
51 930 1
51 1015 1
52 25 1
52 142 1
52 205 1
52 324 1
52 417 1
52 505 1
52 543 1
52 655 1
52 730 1
52 784 1
52 931 1
52 987 1
53 26 1
53 143 1
53 206 1
53 296 1
53 418 1
53 506 1
53 544 1
53 656 1
53 731 1
53 785 1
53 932 1
53 959 1
54 27 1
54 144 1
54 207 1
54 268 1
54 419 1
54 507 1
54 545 1
54 657 1
54 732 1
54 786 1
54 933 1
54 1018 1
55 28 1
55 145 1
55 208 1
55 327 1
55 420 1
55 508 1
55 546 1
55 658 1
55 733 1
55 787 1
55 934 1
55 990 1
56 29 1
56 146 1
56 209 1
56 299 1
56 421 1
56 509 1
56 547 1
56 659 1
56 734 1
56 788 1
56 935 1
56 962 1
57 30 1
57 147 1
57 210 1
57 271 1
57 422 1
57 510 1
57 548 1
57 660 1
57 735 1
57 789 1
57 936 1
57 1021 1
58 31 1
58 148 1
58 211 1
58 330 1
58 423 1
58 511 1
58 549 1
58 661 1
58 736 1
58 790 1
58 937 1
58 993 1
59 32 1
59 149 1
59 212 1
59 302 1
59 424 1
59 512 1
59 550 1
59 662 1
59 737 1
59 791 1
59 938 1
59 965 1
60 33 1
60 150 1
60 213 1
60 274 1
60 425 1
60 513 1
60 551 1
60 663 1
60 738 1
60 792 1
60 939 1
60 1024 1
61 34 1
61 151 1
61 214 1
61 333 1
61 426 1
61 514 1
61 552 1
61 664 1
61 739 1
61 793 1
61 940 1
61 996 1
62 35 1
62 152 1
62 215 1
62 305 1
62 427 1
62 515 1
62 553 1
62 665 1
62 740 1
62 794 1
62 941 1
62 968 1
63 36 1
63 153 1
63 216 1
63 277 1
63 428 1
63 516 1
63 554 1
63 666 1
63 741 1
63 795 1
63 942 1
63 1027 1
64 37 1
64 154 1
64 217 1
64 336 1
64 429 1
64 517 1
64 555 1
64 667 1
64 742 1
64 796 1
64 943 1
64 999 1
65 38 1
65 155 1
65 218 1
65 308 1
65 430 1
65 518 1
65 556 1
65 668 1
65 743 1
65 797 1
65 944 1
65 971 1
66 39 1
66 156 1
66 219 1
66 280 1
66 431 1
66 519 1
66 557 1
66 669 1
66 744 1
66 798 1
66 945 1
66 1030 1
67 40 1
67 157 1
67 220 1
67 339 1
67 432 1
67 520 1
67 558 1
67 670 1
67 745 1
67 799 1
67 946 1
67 1002 1
68 41 1
68 158 1
68 221 1
68 311 1
68 433 1
68 521 1
68 559 1
68 671 1
68 746 1
68 800 1
68 947 1
68 974 1
69 42 1
69 159 1
69 222 1
69 283 1
69 434 1
69 522 1
69 560 1
69 672 1
69 747 1
69 801 1
69 948 1
69 1033 1
70 43 1
70 160 1
70 223 1
70 342 1
70 435 1
70 436 1
70 561 1
70 673 1
70 748 1
70 802 1
70 949 1
70 1005 1
71 44 1
71 161 1
71 224 1
71 314 1
71 349 1
71 437 1
71 562 1
71 674 1
71 749 1
71 803 1
71 950 1
71 977 1
72 45 1
72 162 1
72 225 1
72 286 1
72 350 1
72 438 1
72 563 1
72 675 1
72 750 1
72 804 1
72 951 1
72 1036 1
73 46 1
73 163 1
73 226 1
73 345 1
73 351 1
73 439 1
73 564 1
73 676 1
73 751 1
73 805 1
73 952 1
73 1008 1
74 47 1
74 164 1
74 227 1
74 317 1
74 352 1
74 440 1
74 565 1
74 677 1
74 752 1
74 806 1
74 953 1
74 980 1
75 48 1
75 165 1
75 228 1
75 289 1
75 353 1
75 441 1
75 566 1
75 678 1
75 753 1
75 807 1
75 954 1
75 1039 1
76 49 1
76 166 1
76 229 1
76 348 1
76 354 1
76 442 1
76 567 1
76 679 1
76 754 1
76 808 1
76 955 1
76 1011 1
77 50 1
77 167 1
77 230 1
77 320 1
77 355 1
77 443 1
77 568 1
77 680 1
77 755 1
77 809 1
77 956 1
77 983 1
78 51 1
78 168 1
78 231 1
78 292 1
78 356 1
78 444 1
78 569 1
78 681 1
78 756 1
78 810 1
78 957 1
78 1042 1
79 52 1
79 169 1
79 232 1
79 264 1
79 357 1
79 445 1
79 570 1
79 682 1
79 757 1
79 811 1
79 871 1
79 1014 1
80 53 1
80 170 1
80 233 1
80 323 1
80 358 1
80 446 1
80 571 1
80 683 1
80 758 1
80 812 1
80 872 1
80 986 1
81 54 1
81 171 1
81 234 1
81 295 1
81 359 1
81 447 1
81 572 1
81 684 1
81 759 1
81 813 1
81 873 1
81 958 1
82 55 1
82 172 1
82 235 1
82 267 1
82 360 1
82 448 1
82 573 1
82 685 1
82 760 1
82 814 1
82 874 1
82 1017 1
83 56 1
83 173 1
83 236 1
83 326 1
83 361 1
83 449 1
83 574 1
83 686 1
83 761 1
83 815 1
83 875 1
83 989 1
84 57 1
84 174 1
84 237 1
84 298 1
84 362 1
84 450 1
84 575 1
84 687 1
84 762 1
84 816 1
84 876 1
84 961 1
85 58 1
85 88 1
85 238 1
85 270 1
85 363 1
85 451 1
85 576 1
85 688 1
85 763 1
85 817 1
85 877 1
85 1020 1
86 59 1
86 89 1
86 239 1
86 329 1
86 364 1
86 452 1
86 577 1
86 689 1
86 764 1
86 818 1
86 878 1
86 992 1
87 60 1
87 90 1
87 240 1
87 301 1
87 365 1
87 453 1
87 578 1
87 690 1
87 765 1
87 819 1
87 879 1
87 964 1
88 19 1
88 148 1
88 178 1
88 328 1
88 360 1
88 453 1
88 588 1
88 666 1
88 778 1
88 853 1
88 907 1
88 967 1
89 20 1
89 149 1
89 179 1
89 329 1
89 419 1
89 454 1
89 560 1
89 667 1
89 779 1
89 854 1
89 908 1
89 968 1
90 21 1
90 150 1
90 180 1
90 330 1
90 391 1
90 455 1
90 532 1
90 668 1
90 780 1
90 855 1
90 909 1
90 969 1
91 22 1
91 151 1
91 181 1
91 331 1
91 363 1
91 456 1
91 591 1
91 669 1
91 781 1
91 856 1
91 910 1
91 970 1
92 23 1
92 152 1
92 182 1
92 332 1
92 422 1
92 457 1
92 563 1
92 670 1
92 782 1
92 857 1
92 911 1
92 971 1
93 24 1
93 153 1
93 183 1
93 333 1
93 394 1
93 458 1
93 535 1
93 671 1
93 783 1
93 858 1
93 912 1
93 972 1
94 25 1
94 154 1
94 184 1
94 334 1
94 366 1
94 459 1
94 594 1
94 672 1
94 697 1
94 859 1
94 913 1
94 973 1
95 26 1
95 155 1
95 185 1
95 335 1
95 425 1
95 460 1
95 566 1
95 673 1
95 698 1
95 860 1
95 914 1
95 974 1
96 27 1
96 156 1
96 186 1
96 336 1
96 397 1
96 461 1
96 538 1
96 674 1
96 699 1
96 861 1
96 915 1
96 975 1
97 28 1
97 157 1
97 187 1
97 337 1
97 369 1
97 462 1
97 597 1
97 675 1
97 700 1
97 862 1
97 916 1
97 976 1
98 29 1
98 158 1
98 188 1
98 338 1
98 428 1
98 463 1
98 569 1
98 676 1
98 701 1
98 863 1
98 917 1
98 977 1
99 30 1
99 159 1
99 189 1
99 339 1
99 400 1
99 464 1
99 541 1
99 677 1
99 702 1
99 864 1
99 918 1
99 978 1
100 31 1
100 160 1
100 190 1
100 340 1
100 372 1
100 465 1
100 600 1
100 678 1
100 703 1
100 865 1
100 919 1
100 979 1
101 32 1
101 161 1
101 191 1
101 341 1
101 431 1
101 466 1
101 572 1
101 679 1
101 704 1
101 866 1
101 920 1
101 980 1
102 33 1
102 162 1
102 192 1
102 342 1
102 403 1
102 467 1
102 544 1
102 680 1
102 705 1
102 867 1
102 921 1
102 981 1
103 34 1
103 163 1
103 193 1
103 343 1
103 375 1
103 468 1
103 603 1
103 681 1
103 706 1
103 868 1
103 922 1
103 982 1
104 35 1
104 164 1
104 194 1
104 344 1
104 434 1
104 469 1
104 575 1
104 682 1
104 707 1
104 869 1
104 923 1
104 983 1
105 36 1
105 165 1
105 195 1
105 345 1
105 406 1
105 470 1
105 547 1
105 683 1
105 708 1
105 870 1
105 924 1
105 984 1
106 37 1
106 166 1
106 196 1
106 346 1
106 378 1
106 471 1
106 606 1
106 684 1
106 709 1
106 784 1
106 925 1
106 985 1
107 38 1
107 167 1
107 197 1
107 347 1
107 350 1
107 472 1
107 578 1
107 685 1
107 710 1
107 785 1
107 926 1
107 986 1
108 39 1
108 168 1
108 198 1
108 348 1
108 409 1
108 473 1
108 550 1
108 686 1
108 711 1
108 786 1
108 927 1
108 987 1
109 40 1
109 169 1
109 199 1
109 262 1
109 381 1
109 474 1
109 609 1
109 687 1
109 712 1
109 787 1
109 928 1
109 988 1
110 41 1
110 170 1
110 200 1
110 263 1
110 353 1
110 475 1
110 581 1
110 688 1
110 713 1
110 788 1
110 929 1
110 989 1
111 42 1
111 171 1
111 201 1
111 264 1
111 412 1
111 476 1
111 553 1
111 689 1
111 714 1
111 789 1
111 930 1
111 990 1
112 43 1
112 172 1
112 202 1
112 265 1
112 384 1
112 477 1
112 525 1
112 690 1
112 715 1
112 790 1
112 931 1
112 991 1
113 44 1
113 173 1
113 203 1
113 266 1
113 356 1
113 478 1
113 584 1
113 691 1
113 716 1
113 791 1
113 932 1
113 992 1
114 45 1
114 174 1
114 204 1
114 267 1
114 415 1
114 479 1
114 556 1
114 692 1
114 717 1
114 792 1
114 933 1
114 993 1
115 46 1
115 88 1
115 205 1
115 268 1
115 387 1
115 480 1
115 528 1
115 693 1
115 718 1
115 793 1
115 934 1
115 994 1
116 47 1
116 89 1
116 206 1
116 269 1
116 359 1
116 481 1
116 587 1
116 694 1
116 719 1
116 794 1
116 935 1
116 995 1
117 48 1
117 90 1
117 207 1
117 270 1
117 418 1
117 482 1
117 559 1
117 695 1
117 720 1
117 795 1
117 936 1
117 996 1
118 49 1
118 91 1
118 208 1
118 271 1
118 390 1
118 483 1
118 531 1
118 696 1
118 721 1
118 796 1
118 937 1
118 997 1
119 50 1
119 92 1
119 209 1
119 272 1
119 362 1
119 484 1
119 590 1
119 610 1
119 722 1
119 797 1
119 938 1
119 998 1
120 51 1
120 93 1
120 210 1
120 273 1
120 421 1
120 485 1
120 562 1
120 611 1
120 723 1
120 798 1
120 939 1
120 999 1
121 52 1
121 94 1
121 211 1
121 274 1
121 393 1
121 486 1
121 534 1
121 612 1
121 724 1
121 799 1
121 940 1
121 1000 1
122 53 1
122 95 1
122 212 1
122 275 1
122 365 1
122 487 1
122 593 1
122 613 1
122 725 1
122 800 1
122 941 1
122 1001 1
123 54 1
123 96 1
123 213 1
123 276 1
123 424 1
123 488 1
123 565 1
123 614 1
123 726 1
123 801 1
123 942 1
123 1002 1
124 55 1
124 97 1
124 214 1
124 277 1
124 396 1
124 489 1
124 537 1
124 615 1
124 727 1
124 802 1
124 943 1
124 1003 1
125 56 1
125 98 1
125 215 1
125 278 1
125 368 1
125 490 1
125 596 1
125 616 1
125 728 1
125 803 1
125 944 1
125 1004 1
126 57 1
126 99 1
126 216 1
126 279 1
126 427 1
126 491 1
126 568 1
126 617 1
126 729 1
126 804 1
126 945 1
126 1005 1
127 58 1
127 100 1
127 217 1
127 280 1
127 399 1
127 492 1
127 540 1
127 618 1
127 730 1
127 805 1
127 946 1
127 1006 1
128 59 1
128 101 1
128 218 1
128 281 1
128 371 1
128 493 1
128 599 1
128 619 1
128 731 1
128 806 1
128 947 1
128 1007 1
129 60 1
129 102 1
129 219 1
129 282 1
129 430 1
129 494 1
129 571 1
129 620 1
129 732 1
129 807 1
129 948 1
129 1008 1
130 61 1
130 103 1
130 220 1
130 283 1
130 402 1
130 495 1
130 543 1
130 621 1
130 733 1
130 808 1
130 949 1
130 1009 1
131 62 1
131 104 1
131 221 1
131 284 1
131 374 1
131 496 1
131 602 1
131 622 1
131 734 1
131 809 1
131 950 1
131 1010 1
132 63 1
132 105 1
132 222 1
132 285 1
132 433 1
132 497 1
132 574 1
132 623 1
132 735 1
132 810 1
132 951 1
132 1011 1
133 64 1
133 106 1
133 223 1
133 286 1
133 405 1
133 498 1
133 546 1
133 624 1
133 736 1
133 811 1
133 952 1
133 1012 1
134 65 1
134 107 1
134 224 1
134 287 1
134 377 1
134 499 1
134 605 1
134 625 1
134 737 1
134 812 1
134 953 1
134 1013 1
135 66 1
135 108 1
135 225 1
135 288 1
135 349 1
135 500 1
135 577 1
135 626 1
135 738 1
135 813 1
135 954 1
135 1014 1
136 67 1
136 109 1
136 226 1
136 289 1
136 408 1
136 501 1
136 549 1
136 627 1
136 739 1
136 814 1
136 955 1
136 1015 1
137 68 1
137 110 1
137 227 1
137 290 1
137 380 1
137 502 1
137 608 1
137 628 1
137 740 1
137 815 1
137 956 1
137 1016 1
138 69 1
138 111 1
138 228 1
138 291 1
138 352 1
138 503 1
138 580 1
138 629 1
138 741 1
138 816 1
138 957 1
138 1017 1
139 70 1
139 112 1
139 229 1
139 292 1
139 411 1
139 504 1
139 552 1
139 630 1
139 742 1
139 817 1
139 871 1
139 1018 1
140 71 1
140 113 1
140 230 1
140 293 1
140 383 1
140 505 1
140 524 1
140 631 1
140 743 1
140 818 1
140 872 1
140 1019 1
141 72 1
141 114 1
141 231 1
141 294 1
141 355 1
141 506 1
141 583 1
141 632 1
141 744 1
141 819 1
141 873 1
141 1020 1
142 73 1
142 115 1
142 232 1
142 295 1
142 414 1
142 507 1
142 555 1
142 633 1
142 745 1
142 820 1
142 874 1
142 1021 1
143 74 1
143 116 1
143 233 1
143 296 1
143 386 1
143 508 1
143 527 1
143 634 1
143 746 1
143 821 1
143 875 1
143 1022 1
144 75 1
144 117 1
144 234 1
144 297 1
144 358 1
144 509 1
144 586 1
144 635 1
144 747 1
144 822 1
144 876 1
144 1023 1
145 76 1
145 118 1
145 235 1
145 298 1
145 417 1
145 510 1
145 558 1
145 636 1
145 748 1
145 823 1
145 877 1
145 1024 1
146 77 1
146 119 1
146 236 1
146 299 1
146 389 1
146 511 1
146 530 1
146 637 1
146 749 1
146 824 1
146 878 1
146 1025 1
147 78 1
147 120 1
147 237 1
147 300 1
147 361 1
147 512 1
147 589 1
147 638 1
147 750 1
147 825 1
147 879 1
147 1026 1
148 79 1
148 121 1
148 238 1
148 301 1
148 420 1
148 513 1
148 561 1
148 639 1
148 751 1
148 826 1
148 880 1
148 1027 1
149 80 1
149 122 1
149 239 1
149 302 1
149 392 1
149 514 1
149 533 1
149 640 1
149 752 1
149 827 1
149 881 1
149 1028 1
150 81 1
150 123 1
150 240 1
150 303 1
150 364 1
150 515 1
150 592 1
150 641 1
150 753 1
150 828 1
150 882 1
150 1029 1
151 82 1
151 124 1
151 241 1
151 304 1
151 423 1
151 516 1
151 564 1
151 642 1
151 754 1
151 829 1
151 883 1
151 1030 1
152 83 1
152 125 1
152 242 1
152 305 1
152 395 1
152 517 1
152 536 1
152 643 1
152 755 1
152 830 1
152 884 1
152 1031 1
153 84 1
153 126 1
153 243 1
153 306 1
153 367 1
153 518 1
153 595 1
153 644 1
153 756 1
153 831 1
153 885 1
153 1032 1
154 85 1
154 127 1
154 244 1
154 307 1
154 426 1
154 519 1
154 567 1
154 645 1
154 757 1
154 832 1
154 886 1
154 1033 1
155 86 1
155 128 1
155 245 1
155 308 1
155 398 1
155 520 1
155 539 1
155 646 1
155 758 1
155 833 1
155 887 1
155 1034 1
156 87 1
156 129 1
156 246 1
156 309 1
156 370 1
156 521 1
156 598 1
156 647 1
156 759 1
156 834 1
156 888 1
156 1035 1
157 1 1
157 130 1
157 247 1
157 310 1
157 429 1
157 522 1
157 570 1
157 648 1
157 760 1
157 835 1
157 889 1
157 1036 1
158 2 1
158 131 1
158 248 1
158 311 1
158 401 1
158 436 1
158 542 1
158 649 1
158 761 1
158 836 1
158 890 1
158 1037 1
159 3 1
159 132 1
159 249 1
159 312 1
159 373 1
159 437 1
159 601 1
159 650 1
159 762 1
159 837 1
159 891 1
159 1038 1
160 4 1
160 133 1
160 250 1
160 313 1
160 432 1
160 438 1
160 573 1
160 651 1
160 763 1
160 838 1
160 892 1
160 1039 1
161 5 1
161 134 1
161 251 1
161 314 1
161 404 1
161 439 1
161 545 1
161 652 1
161 764 1
161 839 1
161 893 1
161 1040 1
162 6 1
162 135 1
162 252 1
162 315 1
162 376 1
162 440 1
162 604 1
162 653 1
162 765 1
162 840 1
162 894 1
162 1041 1
163 7 1
163 136 1
163 253 1
163 316 1
163 435 1
163 441 1
163 576 1
163 654 1
163 766 1
163 841 1
163 895 1
163 1042 1
164 8 1
164 137 1
164 254 1
164 317 1
164 407 1
164 442 1
164 548 1
164 655 1
164 767 1
164 842 1
164 896 1
164 1043 1
165 9 1
165 138 1
165 255 1
165 318 1
165 379 1
165 443 1
165 607 1
165 656 1
165 768 1
165 843 1
165 897 1
165 1044 1
166 10 1
166 139 1
166 256 1
166 319 1
166 351 1
166 444 1
166 579 1
166 657 1
166 769 1
166 844 1
166 898 1
166 958 1
167 11 1
167 140 1
167 257 1
167 320 1
167 410 1
167 445 1
167 551 1
167 658 1
167 770 1
167 845 1
167 899 1
167 959 1
168 12 1
168 141 1
168 258 1
168 321 1
168 382 1
168 446 1
168 523 1
168 659 1
168 771 1
168 846 1
168 900 1
168 960 1
169 13 1
169 142 1
169 259 1
169 322 1
169 354 1
169 447 1
169 582 1
169 660 1
169 772 1
169 847 1
169 901 1
169 961 1
170 14 1
170 143 1
170 260 1
170 323 1
170 413 1
170 448 1
170 554 1
170 661 1
170 773 1
170 848 1
170 902 1
170 962 1
171 15 1
171 144 1
171 261 1
171 324 1
171 385 1
171 449 1
171 526 1
171 662 1
171 774 1
171 849 1
171 903 1
171 963 1
172 16 1
172 145 1
172 175 1
172 325 1
172 357 1
172 450 1
172 585 1
172 663 1
172 775 1
172 850 1
172 904 1
172 964 1
173 17 1
173 146 1
173 176 1
173 326 1
173 416 1
173 451 1
173 557 1
173 664 1
173 776 1
173 851 1
173 905 1
173 965 1
174 18 1
174 147 1
174 177 1
174 327 1
174 388 1
174 452 1
174 529 1
174 665 1
174 777 1
174 852 1
174 906 1
174 966 1
175 18 1
175 106 1
175 235 1
175 265 1
175 415 1
175 447 1
175 532 1
175 675 1
175 753 1
175 865 1
175 940 1
175 994 1
176 19 1
176 107 1
176 236 1
176 266 1
176 416 1
176 506 1
176 533 1
176 647 1
176 754 1
176 866 1
176 941 1
176 995 1
177 20 1
177 108 1
177 237 1
177 267 1
177 417 1
177 478 1
177 534 1
177 619 1
177 755 1
177 867 1
177 942 1
177 996 1
178 21 1
178 109 1
178 238 1
178 268 1
178 418 1
178 450 1
178 535 1
178 678 1
178 756 1
178 868 1
178 943 1
178 997 1
179 22 1
179 110 1
179 239 1
179 269 1
179 419 1
179 509 1
179 536 1
179 650 1
179 757 1
179 869 1
179 944 1
179 998 1
180 23 1
180 111 1
180 240 1
180 270 1
180 420 1
180 481 1
180 537 1
180 622 1
180 758 1
180 870 1
180 945 1
180 999 1
181 24 1
181 112 1
181 241 1
181 271 1
181 421 1
181 453 1
181 538 1
181 681 1
181 759 1
181 784 1
181 946 1
181 1000 1
182 25 1
182 113 1
182 242 1
182 272 1
182 422 1
182 512 1
182 539 1
182 653 1
182 760 1
182 785 1
182 947 1
182 1001 1
183 26 1
183 114 1
183 243 1
183 273 1
183 423 1
183 484 1
183 540 1
183 625 1
183 761 1
183 786 1
183 948 1
183 1002 1
184 27 1
184 115 1
184 244 1
184 274 1
184 424 1
184 456 1
184 541 1
184 684 1
184 762 1
184 787 1
184 949 1
184 1003 1
185 28 1
185 116 1
185 245 1
185 275 1
185 425 1
185 515 1
185 542 1
185 656 1
185 763 1
185 788 1
185 950 1
185 1004 1
186 29 1
186 117 1
186 246 1
186 276 1
186 426 1
186 487 1
186 543 1
186 628 1
186 764 1
186 789 1
186 951 1
186 1005 1
187 30 1
187 118 1
187 247 1
187 277 1
187 427 1
187 459 1
187 544 1
187 687 1
187 765 1
187 790 1
187 952 1
187 1006 1
188 31 1
188 119 1
188 248 1
188 278 1
188 428 1
188 518 1
188 545 1
188 659 1
188 766 1
188 791 1
188 953 1
188 1007 1
189 32 1
189 120 1
189 249 1
189 279 1
189 429 1
189 490 1
189 546 1
189 631 1
189 767 1
189 792 1
189 954 1
189 1008 1
190 33 1
190 121 1
190 250 1
190 280 1
190 430 1
190 462 1
190 547 1
190 690 1
190 768 1
190 793 1
190 955 1
190 1009 1
191 34 1
191 122 1
191 251 1
191 281 1
191 431 1
191 521 1
191 548 1
191 662 1
191 769 1
191 794 1
191 956 1
191 1010 1
192 35 1
192 123 1
192 252 1
192 282 1
192 432 1
192 493 1
192 549 1
192 634 1
192 770 1
192 795 1
192 957 1
192 1011 1
193 36 1
193 124 1
193 253 1
193 283 1
193 433 1
193 465 1
193 550 1
193 693 1
193 771 1
193 796 1
193 871 1
193 1012 1
194 37 1
194 125 1
194 254 1
194 284 1
194 434 1
194 437 1
194 551 1
194 665 1
194 772 1
194 797 1
194 872 1
194 1013 1
195 38 1
195 126 1
195 255 1
195 285 1
195 435 1
195 496 1
195 552 1
195 637 1
195 773 1
195 798 1
195 873 1
195 1014 1
196 39 1
196 127 1
196 256 1
196 286 1
196 349 1
196 468 1
196 553 1
196 696 1
196 774 1
196 799 1
196 874 1
196 1015 1
197 40 1
197 128 1
197 257 1
197 287 1
197 350 1
197 440 1
197 554 1
197 668 1
197 775 1
197 800 1
197 875 1
197 1016 1
198 41 1
198 129 1
198 258 1
198 288 1
198 351 1
198 499 1
198 555 1
198 640 1
198 776 1
198 801 1
198 876 1
198 1017 1
199 42 1
199 130 1
199 259 1
199 289 1
199 352 1
199 471 1
199 556 1
199 612 1
199 777 1
199 802 1
199 877 1
199 1018 1
200 43 1
200 131 1
200 260 1
200 290 1
200 353 1
200 443 1
200 557 1
200 671 1
200 778 1
200 803 1
200 878 1
200 1019 1
201 44 1
201 132 1
201 261 1
201 291 1
201 354 1
201 502 1
201 558 1
201 643 1
201 779 1
201 804 1
201 879 1
201 1020 1
202 45 1
202 133 1
202 175 1
202 292 1
202 355 1
202 474 1
202 559 1
202 615 1
202 780 1
202 805 1
202 880 1
202 1021 1
203 46 1
203 134 1
203 176 1
203 293 1
203 356 1
203 446 1
203 560 1
203 674 1
203 781 1
203 806 1
203 881 1
203 1022 1
204 47 1
204 135 1
204 177 1
204 294 1
204 357 1
204 505 1
204 561 1
204 646 1
204 782 1
204 807 1
204 882 1
204 1023 1
205 48 1
205 136 1
205 178 1
205 295 1
205 358 1
205 477 1
205 562 1
205 618 1
205 783 1
205 808 1
205 883 1
205 1024 1
206 49 1
206 137 1
206 179 1
206 296 1
206 359 1
206 449 1
206 563 1
206 677 1
206 697 1
206 809 1
206 884 1
206 1025 1
207 50 1
207 138 1
207 180 1
207 297 1
207 360 1
207 508 1
207 564 1
207 649 1
207 698 1
207 810 1
207 885 1
207 1026 1
208 51 1
208 139 1
208 181 1
208 298 1
208 361 1
208 480 1
208 565 1
208 621 1
208 699 1
208 811 1
208 886 1
208 1027 1
209 52 1
209 140 1
209 182 1
209 299 1
209 362 1
209 452 1
209 566 1
209 680 1
209 700 1
209 812 1
209 887 1
209 1028 1
210 53 1
210 141 1
210 183 1
210 300 1
210 363 1
210 511 1
210 567 1
210 652 1
210 701 1
210 813 1
210 888 1
210 1029 1
211 54 1
211 142 1
211 184 1
211 301 1
211 364 1
211 483 1
211 568 1
211 624 1
211 702 1
211 814 1
211 889 1
211 1030 1
212 55 1
212 143 1
212 185 1
212 302 1
212 365 1
212 455 1
212 569 1
212 683 1
212 703 1
212 815 1
212 890 1
212 1031 1
213 56 1
213 144 1
213 186 1
213 303 1
213 366 1
213 514 1
213 570 1
213 655 1
213 704 1
213 816 1
213 891 1
213 1032 1
214 57 1
214 145 1
214 187 1
214 304 1
214 367 1
214 486 1
214 571 1
214 627 1
214 705 1
214 817 1
214 892 1
214 1033 1
215 58 1
215 146 1
215 188 1
215 305 1
215 368 1
215 458 1
215 572 1
215 686 1
215 706 1
215 818 1
215 893 1
215 1034 1
216 59 1
216 147 1
216 189 1
216 306 1
216 369 1
216 517 1
216 573 1
216 658 1
216 707 1
216 819 1
216 894 1
216 1035 1
217 60 1
217 148 1
217 190 1
217 307 1
217 370 1
217 489 1
217 574 1
217 630 1
217 708 1
217 820 1
217 895 1
217 1036 1
218 61 1
218 149 1
218 191 1
218 308 1
218 371 1
218 461 1
218 575 1
218 689 1
218 709 1
218 821 1
218 896 1
218 1037 1
219 62 1
219 150 1
219 192 1
219 309 1
219 372 1
219 520 1
219 576 1
219 661 1
219 710 1
219 822 1
219 897 1
219 1038 1
220 63 1
220 151 1
220 193 1
220 310 1
220 373 1
220 492 1
220 577 1
220 633 1
220 711 1
220 823 1
220 898 1
220 1039 1
221 64 1
221 152 1
221 194 1
221 311 1
221 374 1
221 464 1
221 578 1
221 692 1
221 712 1
221 824 1
221 899 1
221 1040 1
222 65 1
222 153 1
222 195 1
222 312 1
222 375 1
222 436 1
222 579 1
222 664 1
222 713 1
222 825 1
222 900 1
222 1041 1
223 66 1
223 154 1
223 196 1
223 313 1
223 376 1
223 495 1
223 580 1
223 636 1
223 714 1
223 826 1
223 901 1
223 1042 1
224 67 1
224 155 1
224 197 1
224 314 1
224 377 1
224 467 1
224 581 1
224 695 1
224 715 1
224 827 1
224 902 1
224 1043 1
225 68 1
225 156 1
225 198 1
225 315 1
225 378 1
225 439 1
225 582 1
225 667 1
225 716 1
225 828 1
225 903 1
225 1044 1
226 69 1
226 157 1
226 199 1
226 316 1
226 379 1
226 498 1
226 583 1
226 639 1
226 717 1
226 829 1
226 904 1
226 958 1
227 70 1
227 158 1
227 200 1
227 317 1
227 380 1
227 470 1
227 584 1
227 611 1
227 718 1
227 830 1
227 905 1
227 959 1
228 71 1
228 159 1
228 201 1
228 318 1
228 381 1
228 442 1
228 585 1
228 670 1
228 719 1
228 831 1
228 906 1
228 960 1
229 72 1
229 160 1
229 202 1
229 319 1
229 382 1
229 501 1
229 586 1
229 642 1
229 720 1
229 832 1
229 907 1
229 961 1
230 73 1
230 161 1
230 203 1
230 320 1
230 383 1
230 473 1
230 587 1
230 614 1
230 721 1
230 833 1
230 908 1
230 962 1
231 74 1
231 162 1
231 204 1
231 321 1
231 384 1
231 445 1
231 588 1
231 673 1
231 722 1
231 834 1
231 909 1
231 963 1
232 75 1
232 163 1
232 205 1
232 322 1
232 385 1
232 504 1
232 589 1
232 645 1
232 723 1
232 835 1
232 910 1
232 964 1
233 76 1
233 164 1
233 206 1
233 323 1
233 386 1
233 476 1
233 590 1
233 617 1
233 724 1
233 836 1
233 911 1
233 965 1
234 77 1
234 165 1
234 207 1
234 324 1
234 387 1
234 448 1
234 591 1
234 676 1
234 725 1
234 837 1
234 912 1
234 966 1
235 78 1
235 166 1
235 208 1
235 325 1
235 388 1
235 507 1
235 592 1
235 648 1
235 726 1
235 838 1
235 913 1
235 967 1
236 79 1
236 167 1
236 209 1
236 326 1
236 389 1
236 479 1
236 593 1
236 620 1
236 727 1
236 839 1
236 914 1
236 968 1
237 80 1
237 168 1
237 210 1
237 327 1
237 390 1
237 451 1
237 594 1
237 679 1
237 728 1
237 840 1
237 915 1
237 969 1
238 81 1
238 169 1
238 211 1
238 328 1
238 391 1
238 510 1
238 595 1
238 651 1
238 729 1
238 841 1
238 916 1
238 970 1
239 82 1
239 170 1
239 212 1
239 329 1
239 392 1
239 482 1
239 596 1
239 623 1
239 730 1
239 842 1
239 917 1
239 971 1
240 83 1
240 171 1
240 213 1
240 330 1
240 393 1
240 454 1
240 597 1
240 682 1
240 731 1
240 843 1
240 918 1
240 972 1
241 84 1
241 172 1
241 214 1
241 331 1
241 394 1
241 513 1
241 598 1
241 654 1
241 732 1
241 844 1
241 919 1
241 973 1
242 85 1
242 173 1
242 215 1
242 332 1
242 395 1
242 485 1
242 599 1
242 626 1
242 733 1
242 845 1
242 920 1
242 974 1
243 86 1
243 174 1
243 216 1
243 333 1
243 396 1
243 457 1
243 600 1
243 685 1
243 734 1
243 846 1
243 921 1
243 975 1
244 87 1
244 88 1
244 217 1
244 334 1
244 397 1
244 516 1
244 601 1
244 657 1
244 735 1
244 847 1
244 922 1
244 976 1
245 1 1
245 89 1
245 218 1
245 335 1
245 398 1
245 488 1
245 602 1
245 629 1
245 736 1
245 848 1
245 923 1
245 977 1
246 2 1
246 90 1
246 219 1
246 336 1
246 399 1
246 460 1
246 603 1
246 688 1
246 737 1
246 849 1
246 924 1
246 978 1
247 3 1
247 91 1
247 220 1
247 337 1
247 400 1
247 519 1
247 604 1
247 660 1
247 738 1
247 850 1
247 925 1
247 979 1
248 4 1
248 92 1
248 221 1
248 338 1
248 401 1
248 491 1
248 605 1
248 632 1
248 739 1
248 851 1
248 926 1
248 980 1
249 5 1
249 93 1
249 222 1
249 339 1
249 402 1
249 463 1
249 606 1
249 691 1
249 740 1
249 852 1
249 927 1
249 981 1
250 6 1
250 94 1
250 223 1
250 340 1
250 403 1
250 522 1
250 607 1
250 663 1
250 741 1
250 853 1
250 928 1
250 982 1
251 7 1
251 95 1
251 224 1
251 341 1
251 404 1
251 494 1
251 608 1
251 635 1
251 742 1
251 854 1
251 929 1
251 983 1
252 8 1
252 96 1
252 225 1
252 342 1
252 405 1
252 466 1
252 609 1
252 694 1
252 743 1
252 855 1
252 930 1
252 984 1
253 9 1
253 97 1
253 226 1
253 343 1
253 406 1
253 438 1
253 523 1
253 666 1
253 744 1
253 856 1
253 931 1
253 985 1
254 10 1
254 98 1
254 227 1
254 344 1
254 407 1
254 497 1
254 524 1
254 638 1
254 745 1
254 857 1
254 932 1
254 986 1
255 11 1
255 99 1
255 228 1
255 345 1
255 408 1
255 469 1
255 525 1
255 610 1
255 746 1
255 858 1
255 933 1
255 987 1
256 12 1
256 100 1
256 229 1
256 346 1
256 409 1
256 441 1
256 526 1
256 669 1
256 747 1
256 859 1
256 934 1
256 988 1
257 13 1
257 101 1
257 230 1
257 347 1
257 410 1
257 500 1
257 527 1
257 641 1
257 748 1
257 860 1
257 935 1
257 989 1
258 14 1
258 102 1
258 231 1
258 348 1
258 411 1
258 472 1
258 528 1
258 613 1
258 749 1
258 861 1
258 936 1
258 990 1
259 15 1
259 103 1
259 232 1
259 262 1
259 412 1
259 444 1
259 529 1
259 672 1
259 750 1
259 862 1
259 937 1
259 991 1
260 16 1
260 104 1
260 233 1
260 263 1
260 413 1
260 503 1
260 530 1
260 644 1
260 751 1
260 863 1
260 938 1
260 992 1
261 17 1
261 105 1
261 234 1
261 264 1
261 414 1
261 475 1
261 531 1
261 616 1
261 752 1
261 864 1
261 939 1
261 993 1
