%%MatrixMarket matrix coordinate integer general
%
225 900 2700
1 74 1
1 108 1
1 208 1
1 238 1
1 370 1
1 382 1
1 460 1
1 583 1
1 662 1
1 693 1
1 811 1
1 883 1
2 75 1
2 134 1
2 209 1
2 239 1
2 371 1
2 383 1
2 461 1
2 584 1
2 663 1
2 719 1
2 812 1
2 884 1
3 1 1
3 85 1
3 210 1
3 240 1
3 372 1
3 384 1
3 462 1
3 585 1
3 664 1
3 745 1
3 813 1
3 885 1
4 2 1
4 111 1
4 211 1
4 241 1
4 373 1
4 385 1
4 463 1
4 586 1
4 665 1
4 696 1
4 814 1
4 886 1
5 3 1
5 137 1
5 212 1
5 242 1
5 374 1
5 386 1
5 464 1
5 587 1
5 666 1
5 722 1
5 815 1
5 887 1
6 4 1
6 88 1
6 213 1
6 243 1
6 375 1
6 387 1
6 465 1
6 588 1
6 667 1
6 748 1
6 816 1
6 888 1
7 5 1
7 114 1
7 214 1
7 244 1
7 301 1
7 388 1
7 466 1
7 589 1
7 668 1
7 699 1
7 817 1
7 889 1
8 6 1
8 140 1
8 215 1
8 245 1
8 302 1
8 389 1
8 467 1
8 590 1
8 669 1
8 725 1
8 818 1
8 890 1
9 7 1
9 91 1
9 216 1
9 246 1
9 303 1
9 390 1
9 468 1
9 591 1
9 670 1
9 676 1
9 819 1
9 891 1
10 8 1
10 117 1
10 217 1
10 247 1
10 304 1
10 391 1
10 469 1
10 592 1
10 671 1
10 702 1
10 820 1
10 892 1
11 9 1
11 143 1
11 218 1
11 248 1
11 305 1
11 392 1
11 470 1
11 593 1
11 672 1
11 728 1
11 821 1
11 893 1
12 10 1
12 94 1
12 219 1
12 249 1
12 306 1
12 393 1
12 471 1
12 594 1
12 673 1
12 679 1
12 822 1
12 894 1
13 11 1
13 120 1
13 220 1
13 250 1
13 307 1
13 394 1
13 472 1
13 595 1
13 674 1
13 705 1
13 823 1
13 895 1
14 12 1
14 146 1
14 221 1
14 251 1
14 308 1
14 395 1
14 473 1
14 596 1
14 675 1
14 731 1
14 824 1
14 896 1
15 13 1
15 97 1
15 222 1
15 252 1
15 309 1
15 396 1
15 474 1
15 597 1
15 601 1
15 682 1
15 825 1
15 897 1
16 14 1
16 123 1
16 223 1
16 253 1
16 310 1
16 397 1
16 475 1
16 598 1
16 602 1
16 708 1
16 751 1
16 898 1
17 15 1
17 149 1
17 224 1
17 254 1
17 311 1
17 398 1
17 476 1
17 599 1
17 603 1
17 734 1
17 752 1
17 899 1
18 16 1
18 100 1
18 225 1
18 255 1
18 312 1
18 399 1
18 477 1
18 600 1
18 604 1
18 685 1
18 753 1
18 900 1
19 17 1
19 126 1
19 151 1
19 256 1
19 313 1
19 400 1
19 478 1
19 526 1
19 605 1
19 711 1
19 754 1
19 826 1
20 18 1
20 77 1
20 152 1
20 257 1
20 314 1
20 401 1
20 479 1
20 527 1
20 606 1
20 737 1
20 755 1
20 827 1
21 19 1
21 103 1
21 153 1
21 258 1
21 315 1
21 402 1
21 480 1
21 528 1
21 607 1
21 688 1
21 756 1
21 828 1
22 20 1
22 129 1
22 154 1
22 259 1
22 316 1
22 403 1
22 481 1
22 529 1
22 608 1
22 714 1
22 757 1
22 829 1
23 21 1
23 80 1
23 155 1
23 260 1
23 317 1
23 404 1
23 482 1
23 530 1
23 609 1
23 740 1
23 758 1
23 830 1
24 22 1
24 106 1
24 156 1
24 261 1
24 318 1
24 405 1
24 483 1
24 531 1
24 610 1
24 691 1
24 759 1
24 831 1
25 23 1
25 132 1
25 157 1
25 262 1
25 319 1
25 406 1
25 484 1
25 532 1
25 611 1
25 717 1
25 760 1
25 832 1
26 24 1
26 83 1
26 158 1
26 263 1
26 320 1
26 407 1
26 485 1
26 533 1
26 612 1
26 743 1
26 761 1
26 833 1
27 25 1
27 109 1
27 159 1
27 264 1
27 321 1
27 408 1
27 486 1
27 534 1
27 613 1
27 694 1
27 762 1
27 834 1
28 26 1
28 135 1
28 160 1
28 265 1
28 322 1
28 409 1
28 487 1
28 535 1
28 614 1
28 720 1
28 763 1
28 835 1
29 27 1
29 86 1
29 161 1
29 266 1
29 323 1
29 410 1
29 488 1
29 536 1
29 615 1
29 746 1
29 764 1
29 836 1
30 28 1
30 112 1
30 162 1
30 267 1
30 324 1
30 411 1
30 489 1
30 537 1
30 616 1
30 697 1
30 765 1
30 837 1
31 29 1
31 138 1
31 163 1
31 268 1
31 325 1
31 412 1
31 490 1
31 538 1
31 617 1
31 723 1
31 766 1
31 838 1
32 30 1
32 89 1
32 164 1
32 269 1
32 326 1
32 413 1
32 491 1
32 539 1
32 618 1
32 749 1
32 767 1
32 839 1
33 31 1
33 115 1
33 165 1
33 270 1
33 327 1
33 414 1
33 492 1
33 540 1
33 619 1
33 700 1
33 768 1
33 840 1
34 32 1
34 141 1
34 166 1
34 271 1
34 328 1
34 415 1
34 493 1
34 541 1
34 620 1
34 726 1
34 769 1
34 841 1
35 33 1
35 92 1
35 167 1
35 272 1
35 329 1
35 416 1
35 494 1
35 542 1
35 621 1
35 677 1
35 770 1
35 842 1
36 34 1
36 118 1
36 168 1
36 273 1
36 330 1
36 417 1
36 495 1
36 543 1
36 622 1
36 703 1
36 771 1
36 843 1
37 35 1
37 144 1
37 169 1
37 274 1
37 331 1
37 418 1
37 496 1
37 544 1
37 623 1
37 729 1
37 772 1
37 844 1
38 36 1
38 95 1
38 170 1
38 275 1
38 332 1
38 419 1
38 497 1
38 545 1
38 624 1
38 680 1
38 773 1
38 845 1
39 37 1
39 121 1
39 171 1
39 276 1
39 333 1
39 420 1
39 498 1
39 546 1
39 625 1
39 706 1
39 774 1
39 846 1
40 38 1
40 147 1
40 172 1
40 277 1
40 334 1
40 421 1
40 499 1
40 547 1
40 626 1
40 732 1
40 775 1
40 847 1
41 39 1
41 98 1
41 173 1
41 278 1
41 335 1
41 422 1
41 500 1
41 548 1
41 627 1
41 683 1
41 776 1
41 848 1
42 40 1
42 124 1
42 174 1
42 279 1
42 336 1
42 423 1
42 501 1
42 549 1
42 628 1
42 709 1
42 777 1
42 849 1
43 41 1
43 150 1
43 175 1
43 280 1
43 337 1
43 424 1
43 502 1
43 550 1
43 629 1
43 735 1
43 778 1
43 850 1
44 42 1
44 101 1
44 176 1
44 281 1
44 338 1
44 425 1
44 503 1
44 551 1
44 630 1
44 686 1
44 779 1
44 851 1
45 43 1
45 127 1
45 177 1
45 282 1
45 339 1
45 426 1
45 504 1
45 552 1
45 631 1
45 712 1
45 780 1
45 852 1
46 44 1
46 78 1
46 178 1
46 283 1
46 340 1
46 427 1
46 505 1
46 553 1
46 632 1
46 738 1
46 781 1
46 853 1
47 45 1
47 104 1
47 179 1
47 284 1
47 341 1
47 428 1
47 506 1
47 554 1
47 633 1
47 689 1
47 782 1
47 854 1
48 46 1
48 130 1
48 180 1
48 285 1
48 342 1
48 429 1
48 507 1
48 555 1
48 634 1
48 715 1
48 783 1
48 855 1
49 47 1
49 81 1
49 181 1
49 286 1
49 343 1
49 430 1
49 508 1
49 556 1
49 635 1
49 741 1
49 784 1
49 856 1
50 48 1
50 107 1
50 182 1
50 287 1
50 344 1
50 431 1
50 509 1
50 557 1
50 636 1
50 692 1
50 785 1
50 857 1
51 49 1
51 133 1
51 183 1
51 288 1
51 345 1
51 432 1
51 510 1
51 558 1
51 637 1
51 718 1
51 786 1
51 858 1
52 50 1
52 84 1
52 184 1
52 289 1
52 346 1
52 433 1
52 511 1
52 559 1
52 638 1
52 744 1
52 787 1
52 859 1
53 51 1
53 110 1
53 185 1
53 290 1
53 347 1
53 434 1
53 512 1
53 560 1
53 639 1
53 695 1
53 788 1
53 860 1
54 52 1
54 136 1
54 186 1
54 291 1
54 348 1
54 435 1
54 513 1
54 561 1
54 640 1
54 721 1
54 789 1
54 861 1
55 53 1
55 87 1
55 187 1
55 292 1
55 349 1
55 436 1
55 514 1
55 562 1
55 641 1
55 747 1
55 790 1
55 862 1
56 54 1
56 113 1
56 188 1
56 293 1
56 350 1
56 437 1
56 515 1
56 563 1
56 642 1
56 698 1
56 791 1
56 863 1
57 55 1
57 139 1
57 189 1
57 294 1
57 351 1
57 438 1
57 516 1
57 564 1
57 643 1
57 724 1
57 792 1
57 864 1
58 56 1
58 90 1
58 190 1
58 295 1
58 352 1
58 439 1
58 517 1
58 565 1
58 644 1
58 750 1
58 793 1
58 865 1
59 57 1
59 116 1
59 191 1
59 296 1
59 353 1
59 440 1
59 518 1
59 566 1
59 645 1
59 701 1
59 794 1
59 866 1
60 58 1
60 142 1
60 192 1
60 297 1
60 354 1
60 441 1
60 519 1
60 567 1
60 646 1
60 727 1
60 795 1
60 867 1
61 59 1
61 93 1
61 193 1
61 298 1
61 355 1
61 442 1
61 520 1
61 568 1
61 647 1
61 678 1
61 796 1
61 868 1
62 60 1
62 119 1
62 194 1
62 299 1
62 356 1
62 443 1
62 521 1
62 569 1
62 648 1
62 704 1
62 797 1
62 869 1
63 61 1
63 145 1
63 195 1
63 300 1
63 357 1
63 444 1
63 522 1
63 570 1
63 649 1
63 730 1
63 798 1
63 870 1
64 62 1
64 96 1
64 196 1
64 226 1
64 358 1
64 445 1
64 523 1
64 571 1
64 650 1
64 681 1
64 799 1
64 871 1
65 63 1
65 122 1
65 197 1
65 227 1
65 359 1
65 446 1
65 524 1
65 572 1
65 651 1
65 707 1
65 800 1
65 872 1
66 64 1
66 148 1
66 198 1
66 228 1
66 360 1
66 447 1
66 525 1
66 573 1
66 652 1
66 733 1
66 801 1
66 873 1
67 65 1
67 99 1
67 199 1
67 229 1
67 361 1
67 448 1
67 451 1
67 574 1
67 653 1
67 684 1
67 802 1
67 874 1
68 66 1
68 125 1
68 200 1
68 230 1
68 362 1
68 449 1
68 452 1
68 575 1
68 654 1
68 710 1
68 803 1
68 875 1
69 67 1
69 76 1
69 201 1
69 231 1
69 363 1
69 450 1
69 453 1
69 576 1
69 655 1
69 736 1
69 804 1
69 876 1
70 68 1
70 102 1
70 202 1
70 232 1
70 364 1
70 376 1
70 454 1
70 577 1
70 656 1
70 687 1
70 805 1
70 877 1
71 69 1
71 128 1
71 203 1
71 233 1
71 365 1
71 377 1
71 455 1
71 578 1
71 657 1
71 713 1
71 806 1
71 878 1
72 70 1
72 79 1
72 204 1
72 234 1
72 366 1
72 378 1
72 456 1
72 579 1
72 658 1
72 739 1
72 807 1
72 879 1
73 71 1
73 105 1
73 205 1
73 235 1
73 367 1
73 379 1
73 457 1
73 580 1
73 659 1
73 690 1
73 808 1
73 880 1
74 72 1
74 131 1
74 206 1
74 236 1
74 368 1
74 380 1
74 458 1
74 581 1
74 660 1
74 716 1
74 809 1
74 881 1
75 73 1
75 82 1
75 207 1
75 237 1
75 369 1
75 381 1
75 459 1
75 582 1
75 661 1
75 742 1
75 810 1
75 882 1
76 7 1
76 149 1
76 183 1
76 283 1
76 313 1
76 445 1
76 508 1
76 535 1
76 658 1
76 737 1
76 768 1
76 886 1
77 8 1
77 150 1
77 209 1
77 284 1
77 314 1
77 446 1
77 509 1
77 536 1
77 659 1
77 738 1
77 794 1
77 887 1
78 9 1
78 76 1
78 160 1
78 285 1
78 315 1
78 447 1
78 510 1
78 537 1
78 660 1
78 739 1
78 820 1
78 888 1
79 10 1
79 77 1
79 186 1
79 286 1
79 316 1
79 448 1
79 511 1
79 538 1
79 661 1
79 740 1
79 771 1
79 889 1
80 11 1
80 78 1
80 212 1
80 287 1
80 317 1
80 449 1
80 512 1
80 539 1
80 662 1
80 741 1
80 797 1
80 890 1
81 12 1
81 79 1
81 163 1
81 288 1
81 318 1
81 450 1
81 513 1
81 540 1
81 663 1
81 742 1
81 823 1
81 891 1
82 13 1
82 80 1
82 189 1
82 289 1
82 319 1
82 376 1
82 514 1
82 541 1
82 664 1
82 743 1
82 774 1
82 892 1
83 14 1
83 81 1
83 215 1
83 290 1
83 320 1
83 377 1
83 515 1
83 542 1
83 665 1
83 744 1
83 800 1
83 893 1
84 15 1
84 82 1
84 166 1
84 291 1
84 321 1
84 378 1
84 516 1
84 543 1
84 666 1
84 745 1
84 751 1
84 894 1
85 16 1
85 83 1
85 192 1
85 292 1
85 322 1
85 379 1
85 517 1
85 544 1
85 667 1
85 746 1
85 777 1
85 895 1
86 17 1
86 84 1
86 218 1
86 293 1
86 323 1
86 380 1
86 518 1
86 545 1
86 668 1
86 747 1
86 803 1
86 896 1
87 18 1
87 85 1
87 169 1
87 294 1
87 324 1
87 381 1
87 519 1
87 546 1
87 669 1
87 748 1
87 754 1
87 897 1
88 19 1
88 86 1
88 195 1
88 295 1
88 325 1
88 382 1
88 520 1
88 547 1
88 670 1
88 749 1
88 780 1
88 898 1
89 20 1
89 87 1
89 221 1
89 296 1
89 326 1
89 383 1
89 521 1
89 548 1
89 671 1
89 750 1
89 806 1
89 899 1
90 21 1
90 88 1
90 172 1
90 297 1
90 327 1
90 384 1
90 522 1
90 549 1
90 672 1
90 676 1
90 757 1
90 900 1
91 22 1
91 89 1
91 198 1
91 298 1
91 328 1
91 385 1
91 523 1
91 550 1
91 673 1
91 677 1
91 783 1
91 826 1
92 23 1
92 90 1
92 224 1
92 299 1
92 329 1
92 386 1
92 524 1
92 551 1
92 674 1
92 678 1
92 809 1
92 827 1
93 24 1
93 91 1
93 175 1
93 300 1
93 330 1
93 387 1
93 525 1
93 552 1
93 675 1
93 679 1
93 760 1
93 828 1
94 25 1
94 92 1
94 201 1
94 226 1
94 331 1
94 388 1
94 451 1
94 553 1
94 601 1
94 680 1
94 786 1
94 829 1
95 26 1
95 93 1
95 152 1
95 227 1
95 332 1
95 389 1
95 452 1
95 554 1
95 602 1
95 681 1
95 812 1
95 830 1
96 27 1
96 94 1
96 178 1
96 228 1
96 333 1
96 390 1
96 453 1
96 555 1
96 603 1
96 682 1
96 763 1
96 831 1
97 28 1
97 95 1
97 204 1
97 229 1
97 334 1
97 391 1
97 454 1
97 556 1
97 604 1
97 683 1
97 789 1
97 832 1
98 29 1
98 96 1
98 155 1
98 230 1
98 335 1
98 392 1
98 455 1
98 557 1
98 605 1
98 684 1
98 815 1
98 833 1
99 30 1
99 97 1
99 181 1
99 231 1
99 336 1
99 393 1
99 456 1
99 558 1
99 606 1
99 685 1
99 766 1
99 834 1
100 31 1
100 98 1
100 207 1
100 232 1
100 337 1
100 394 1
100 457 1
100 559 1
100 607 1
100 686 1
100 792 1
100 835 1
101 32 1
101 99 1
101 158 1
101 233 1
101 338 1
101 395 1
101 458 1
101 560 1
101 608 1
101 687 1
101 818 1
101 836 1
102 33 1
102 100 1
102 184 1
102 234 1
102 339 1
102 396 1
102 459 1
102 561 1
102 609 1
102 688 1
102 769 1
102 837 1
103 34 1
103 101 1
103 210 1
103 235 1
103 340 1
103 397 1
103 460 1
103 562 1
103 610 1
103 689 1
103 795 1
103 838 1
104 35 1
104 102 1
104 161 1
104 236 1
104 341 1
104 398 1
104 461 1
104 563 1
104 611 1
104 690 1
104 821 1
104 839 1
105 36 1
105 103 1
105 187 1
105 237 1
105 342 1
105 399 1
105 462 1
105 564 1
105 612 1
105 691 1
105 772 1
105 840 1
106 37 1
106 104 1
106 213 1
106 238 1
106 343 1
106 400 1
106 463 1
106 565 1
106 613 1
106 692 1
106 798 1
106 841 1
107 38 1
107 105 1
107 164 1
107 239 1
107 344 1
107 401 1
107 464 1
107 566 1
107 614 1
107 693 1
107 824 1
107 842 1
108 39 1
108 106 1
108 190 1
108 240 1
108 345 1
108 402 1
108 465 1
108 567 1
108 615 1
108 694 1
108 775 1
108 843 1
109 40 1
109 107 1
109 216 1
109 241 1
109 346 1
109 403 1
109 466 1
109 568 1
109 616 1
109 695 1
109 801 1
109 844 1
110 41 1
110 108 1
110 167 1
110 242 1
110 347 1
110 404 1
110 467 1
110 569 1
110 617 1
110 696 1
110 752 1
110 845 1
111 42 1
111 109 1
111 193 1
111 243 1
111 348 1
111 405 1
111 468 1
111 570 1
111 618 1
111 697 1
111 778 1
111 846 1
112 43 1
112 110 1
112 219 1
112 244 1
112 349 1
112 406 1
112 469 1
112 571 1
112 619 1
112 698 1
112 804 1
112 847 1
113 44 1
113 111 1
113 170 1
113 245 1
113 350 1
113 407 1
113 470 1
113 572 1
113 620 1
113 699 1
113 755 1
113 848 1
114 45 1
114 112 1
114 196 1
114 246 1
114 351 1
114 408 1
114 471 1
114 573 1
114 621 1
114 700 1
114 781 1
114 849 1
115 46 1
115 113 1
115 222 1
115 247 1
115 352 1
115 409 1
115 472 1
115 574 1
115 622 1
115 701 1
115 807 1
115 850 1
116 47 1
116 114 1
116 173 1
116 248 1
116 353 1
116 410 1
116 473 1
116 575 1
116 623 1
116 702 1
116 758 1
116 851 1
117 48 1
117 115 1
117 199 1
117 249 1
117 354 1
117 411 1
117 474 1
117 576 1
117 624 1
117 703 1
117 784 1
117 852 1
118 49 1
118 116 1
118 225 1
118 250 1
118 355 1
118 412 1
118 475 1
118 577 1
118 625 1
118 704 1
118 810 1
118 853 1
119 50 1
119 117 1
119 176 1
119 251 1
119 356 1
119 413 1
119 476 1
119 578 1
119 626 1
119 705 1
119 761 1
119 854 1
120 51 1
120 118 1
120 202 1
120 252 1
120 357 1
120 414 1
120 477 1
120 579 1
120 627 1
120 706 1
120 787 1
120 855 1
121 52 1
121 119 1
121 153 1
121 253 1
121 358 1
121 415 1
121 478 1
121 580 1
121 628 1
121 707 1
121 813 1
121 856 1
122 53 1
122 120 1
122 179 1
122 254 1
122 359 1
122 416 1
122 479 1
122 581 1
122 629 1
122 708 1
122 764 1
122 857 1
123 54 1
123 121 1
123 205 1
123 255 1
123 360 1
123 417 1
123 480 1
123 582 1
123 630 1
123 709 1
123 790 1
123 858 1
124 55 1
124 122 1
124 156 1
124 256 1
124 361 1
124 418 1
124 481 1
124 583 1
124 631 1
124 710 1
124 816 1
124 859 1
125 56 1
125 123 1
125 182 1
125 257 1
125 362 1
125 419 1
125 482 1
125 584 1
125 632 1
125 711 1
125 767 1
125 860 1
126 57 1
126 124 1
126 208 1
126 258 1
126 363 1
126 420 1
126 483 1
126 585 1
126 633 1
126 712 1
126 793 1
126 861 1
127 58 1
127 125 1
127 159 1
127 259 1
127 364 1
127 421 1
127 484 1
127 586 1
127 634 1
127 713 1
127 819 1
127 862 1
128 59 1
128 126 1
128 185 1
128 260 1
128 365 1
128 422 1
128 485 1
128 587 1
128 635 1
128 714 1
128 770 1
128 863 1
129 60 1
129 127 1
129 211 1
129 261 1
129 366 1
129 423 1
129 486 1
129 588 1
129 636 1
129 715 1
129 796 1
129 864 1
130 61 1
130 128 1
130 162 1
130 262 1
130 367 1
130 424 1
130 487 1
130 589 1
130 637 1
130 716 1
130 822 1
130 865 1
131 62 1
131 129 1
131 188 1
131 263 1
131 368 1
131 425 1
131 488 1
131 590 1
131 638 1
131 717 1
131 773 1
131 866 1
132 63 1
132 130 1
132 214 1
132 264 1
132 369 1
132 426 1
132 489 1
132 591 1
132 639 1
132 718 1
132 799 1
132 867 1
133 64 1
133 131 1
133 165 1
133 265 1
133 370 1
133 427 1
133 490 1
133 592 1
133 640 1
133 719 1
133 825 1
133 868 1
134 65 1
134 132 1
134 191 1
134 266 1
134 371 1
134 428 1
134 491 1
134 593 1
134 641 1
134 720 1
134 776 1
134 869 1
135 66 1
135 133 1
135 217 1
135 267 1
135 372 1
135 429 1
135 492 1
135 594 1
135 642 1
135 721 1
135 802 1
135 870 1
136 67 1
136 134 1
136 168 1
136 268 1
136 373 1
136 430 1
136 493 1
136 595 1
136 643 1
136 722 1
136 753 1
136 871 1
137 68 1
137 135 1
137 194 1
137 269 1
137 374 1
137 431 1
137 494 1
137 596 1
137 644 1
137 723 1
137 779 1
137 872 1
138 69 1
138 136 1
138 220 1
138 270 1
138 375 1
138 432 1
138 495 1
138 597 1
138 645 1
138 724 1
138 805 1
138 873 1
139 70 1
139 137 1
139 171 1
139 271 1
139 301 1
139 433 1
139 496 1
139 598 1
139 646 1
139 725 1
139 756 1
139 874 1
140 71 1
140 138 1
140 197 1
140 272 1
140 302 1
140 434 1
140 497 1
140 599 1
140 647 1
140 726 1
140 782 1
140 875 1
141 72 1
141 139 1
141 223 1
141 273 1
141 303 1
141 435 1
141 498 1
141 600 1
141 648 1
141 727 1
141 808 1
141 876 1
142 73 1
142 140 1
142 174 1
142 274 1
142 304 1
142 436 1
142 499 1
142 526 1
142 649 1
142 728 1
142 759 1
142 877 1
143 74 1
143 141 1
143 200 1
143 275 1
143 305 1
143 437 1
143 500 1
143 527 1
143 650 1
143 729 1
143 785 1
143 878 1
144 75 1
144 142 1
144 151 1
144 276 1
144 306 1
144 438 1
144 501 1
144 528 1
144 651 1
144 730 1
144 811 1
144 879 1
145 1 1
145 143 1
145 177 1
145 277 1
145 307 1
145 439 1
145 502 1
145 529 1
145 652 1
145 731 1
145 762 1
145 880 1
146 2 1
146 144 1
146 203 1
146 278 1
146 308 1
146 440 1
146 503 1
146 530 1
146 653 1
146 732 1
146 788 1
146 881 1
147 3 1
147 145 1
147 154 1
147 279 1
147 309 1
147 441 1
147 504 1
147 531 1
147 654 1
147 733 1
147 814 1
147 882 1
148 4 1
148 146 1
148 180 1
148 280 1
148 310 1
148 442 1
148 505 1
148 532 1
148 655 1
148 734 1
148 765 1
148 883 1
149 5 1
149 147 1
149 206 1
149 281 1
149 311 1
149 443 1
149 506 1
149 533 1
149 656 1
149 735 1
149 791 1
149 884 1
150 6 1
150 148 1
150 157 1
150 282 1
150 312 1
150 444 1
150 507 1
150 534 1
150 657 1
150 736 1
150 817 1
150 885 1
151 70 1
151 82 1
151 224 1
151 258 1
151 358 1
151 388 1
151 511 1
151 583 1
151 610 1
151 733 1
151 812 1
151 843 1
152 71 1
152 83 1
152 225 1
152 284 1
152 359 1
152 389 1
152 512 1
152 584 1
152 611 1
152 734 1
152 813 1
152 869 1
153 72 1
153 84 1
153 151 1
153 235 1
153 360 1
153 390 1
153 513 1
153 585 1
153 612 1
153 735 1
153 814 1
153 895 1
154 73 1
154 85 1
154 152 1
154 261 1
154 361 1
154 391 1
154 514 1
154 586 1
154 613 1
154 736 1
154 815 1
154 846 1
155 74 1
155 86 1
155 153 1
155 287 1
155 362 1
155 392 1
155 515 1
155 587 1
155 614 1
155 737 1
155 816 1
155 872 1
156 75 1
156 87 1
156 154 1
156 238 1
156 363 1
156 393 1
156 516 1
156 588 1
156 615 1
156 738 1
156 817 1
156 898 1
157 1 1
157 88 1
157 155 1
157 264 1
157 364 1
157 394 1
157 517 1
157 589 1
157 616 1
157 739 1
157 818 1
157 849 1
158 2 1
158 89 1
158 156 1
158 290 1
158 365 1
158 395 1
158 518 1
158 590 1
158 617 1
158 740 1
158 819 1
158 875 1
159 3 1
159 90 1
159 157 1
159 241 1
159 366 1
159 396 1
159 519 1
159 591 1
159 618 1
159 741 1
159 820 1
159 826 1
160 4 1
160 91 1
160 158 1
160 267 1
160 367 1
160 397 1
160 520 1
160 592 1
160 619 1
160 742 1
160 821 1
160 852 1
161 5 1
161 92 1
161 159 1
161 293 1
161 368 1
161 398 1
161 521 1
161 593 1
161 620 1
161 743 1
161 822 1
161 878 1
162 6 1
162 93 1
162 160 1
162 244 1
162 369 1
162 399 1
162 522 1
162 594 1
162 621 1
162 744 1
162 823 1
162 829 1
163 7 1
163 94 1
163 161 1
163 270 1
163 370 1
163 400 1
163 523 1
163 595 1
163 622 1
163 745 1
163 824 1
163 855 1
164 8 1
164 95 1
164 162 1
164 296 1
164 371 1
164 401 1
164 524 1
164 596 1
164 623 1
164 746 1
164 825 1
164 881 1
165 9 1
165 96 1
165 163 1
165 247 1
165 372 1
165 402 1
165 525 1
165 597 1
165 624 1
165 747 1
165 751 1
165 832 1
166 10 1
166 97 1
166 164 1
166 273 1
166 373 1
166 403 1
166 451 1
166 598 1
166 625 1
166 748 1
166 752 1
166 858 1
167 11 1
167 98 1
167 165 1
167 299 1
167 374 1
167 404 1
167 452 1
167 599 1
167 626 1
167 749 1
167 753 1
167 884 1
168 12 1
168 99 1
168 166 1
168 250 1
168 375 1
168 405 1
168 453 1
168 600 1
168 627 1
168 750 1
168 754 1
168 835 1
169 13 1
169 100 1
169 167 1
169 276 1
169 301 1
169 406 1
169 454 1
169 526 1
169 628 1
169 676 1
169 755 1
169 861 1
170 14 1
170 101 1
170 168 1
170 227 1
170 302 1
170 407 1
170 455 1
170 527 1
170 629 1
170 677 1
170 756 1
170 887 1
171 15 1
171 102 1
171 169 1
171 253 1
171 303 1
171 408 1
171 456 1
171 528 1
171 630 1
171 678 1
171 757 1
171 838 1
172 16 1
172 103 1
172 170 1
172 279 1
172 304 1
172 409 1
172 457 1
172 529 1
172 631 1
172 679 1
172 758 1
172 864 1
173 17 1
173 104 1
173 171 1
173 230 1
173 305 1
173 410 1
173 458 1
173 530 1
173 632 1
173 680 1
173 759 1
173 890 1
174 18 1
174 105 1
174 172 1
174 256 1
174 306 1
174 411 1
174 459 1
174 531 1
174 633 1
174 681 1
174 760 1
174 841 1
175 19 1
175 106 1
175 173 1
175 282 1
175 307 1
175 412 1
175 460 1
175 532 1
175 634 1
175 682 1
175 761 1
175 867 1
176 20 1
176 107 1
176 174 1
176 233 1
176 308 1
176 413 1
176 461 1
176 533 1
176 635 1
176 683 1
176 762 1
176 893 1
177 21 1
177 108 1
177 175 1
177 259 1
177 309 1
177 414 1
177 462 1
177 534 1
177 636 1
177 684 1
177 763 1
177 844 1
178 22 1
178 109 1
178 176 1
178 285 1
178 310 1
178 415 1
178 463 1
178 535 1
178 637 1
178 685 1
178 764 1
178 870 1
179 23 1
179 110 1
179 177 1
179 236 1
179 311 1
179 416 1
179 464 1
179 536 1
179 638 1
179 686 1
179 765 1
179 896 1
180 24 1
180 111 1
180 178 1
180 262 1
180 312 1
180 417 1
180 465 1
180 537 1
180 639 1
180 687 1
180 766 1
180 847 1
181 25 1
181 112 1
181 179 1
181 288 1
181 313 1
181 418 1
181 466 1
181 538 1
181 640 1
181 688 1
181 767 1
181 873 1
182 26 1
182 113 1
182 180 1
182 239 1
182 314 1
182 419 1
182 467 1
182 539 1
182 641 1
182 689 1
182 768 1
182 899 1
183 27 1
183 114 1
183 181 1
183 265 1
183 315 1
183 420 1
183 468 1
183 540 1
183 642 1
183 690 1
183 769 1
183 850 1
184 28 1
184 115 1
184 182 1
184 291 1
184 316 1
184 421 1
184 469 1
184 541 1
184 643 1
184 691 1
184 770 1
184 876 1
185 29 1
185 116 1
185 183 1
185 242 1
185 317 1
185 422 1
185 470 1
185 542 1
185 644 1
185 692 1
185 771 1
185 827 1
186 30 1
186 117 1
186 184 1
186 268 1
186 318 1
186 423 1
186 471 1
186 543 1
186 645 1
186 693 1
186 772 1
186 853 1
187 31 1
187 118 1
187 185 1
187 294 1
187 319 1
187 424 1
187 472 1
187 544 1
187 646 1
187 694 1
187 773 1
187 879 1
188 32 1
188 119 1
188 186 1
188 245 1
188 320 1
188 425 1
188 473 1
188 545 1
188 647 1
188 695 1
188 774 1
188 830 1
189 33 1
189 120 1
189 187 1
189 271 1
189 321 1
189 426 1
189 474 1
189 546 1
189 648 1
189 696 1
189 775 1
189 856 1
190 34 1
190 121 1
190 188 1
190 297 1
190 322 1
190 427 1
190 475 1
190 547 1
190 649 1
190 697 1
190 776 1
190 882 1
191 35 1
191 122 1
191 189 1
191 248 1
191 323 1
191 428 1
191 476 1
191 548 1
191 650 1
191 698 1
191 777 1
191 833 1
192 36 1
192 123 1
192 190 1
192 274 1
192 324 1
192 429 1
192 477 1
192 549 1
192 651 1
192 699 1
192 778 1
192 859 1
193 37 1
193 124 1
193 191 1
193 300 1
193 325 1
193 430 1
193 478 1
193 550 1
193 652 1
193 700 1
193 779 1
193 885 1
194 38 1
194 125 1
194 192 1
194 251 1
194 326 1
194 431 1
194 479 1
194 551 1
194 653 1
194 701 1
194 780 1
194 836 1
195 39 1
195 126 1
195 193 1
195 277 1
195 327 1
195 432 1
195 480 1
195 552 1
195 654 1
195 702 1
195 781 1
195 862 1
196 40 1
196 127 1
196 194 1
196 228 1
196 328 1
196 433 1
196 481 1
196 553 1
196 655 1
196 703 1
196 782 1
196 888 1
197 41 1
197 128 1
197 195 1
197 254 1
197 329 1
197 434 1
197 482 1
197 554 1
197 656 1
197 704 1
197 783 1
197 839 1
198 42 1
198 129 1
198 196 1
198 280 1
198 330 1
198 435 1
198 483 1
198 555 1
198 657 1
198 705 1
198 784 1
198 865 1
199 43 1
199 130 1
199 197 1
199 231 1
199 331 1
199 436 1
199 484 1
199 556 1
199 658 1
199 706 1
199 785 1
199 891 1
200 44 1
200 131 1
200 198 1
200 257 1
200 332 1
200 437 1
200 485 1
200 557 1
200 659 1
200 707 1
200 786 1
200 842 1
201 45 1
201 132 1
201 199 1
201 283 1
201 333 1
201 438 1
201 486 1
201 558 1
201 660 1
201 708 1
201 787 1
201 868 1
202 46 1
202 133 1
202 200 1
202 234 1
202 334 1
202 439 1
202 487 1
202 559 1
202 661 1
202 709 1
202 788 1
202 894 1
203 47 1
203 134 1
203 201 1
203 260 1
203 335 1
203 440 1
203 488 1
203 560 1
203 662 1
203 710 1
203 789 1
203 845 1
204 48 1
204 135 1
204 202 1
204 286 1
204 336 1
204 441 1
204 489 1
204 561 1
204 663 1
204 711 1
204 790 1
204 871 1
205 49 1
205 136 1
205 203 1
205 237 1
205 337 1
205 442 1
205 490 1
205 562 1
205 664 1
205 712 1
205 791 1
205 897 1
206 50 1
206 137 1
206 204 1
206 263 1
206 338 1
206 443 1
206 491 1
206 563 1
206 665 1
206 713 1
206 792 1
206 848 1
207 51 1
207 138 1
207 205 1
207 289 1
207 339 1
207 444 1
207 492 1
207 564 1
207 666 1
207 714 1
207 793 1
207 874 1
208 52 1
208 139 1
208 206 1
208 240 1
208 340 1
208 445 1
208 493 1
208 565 1
208 667 1
208 715 1
208 794 1
208 900 1
209 53 1
209 140 1
209 207 1
209 266 1
209 341 1
209 446 1
209 494 1
209 566 1
209 668 1
209 716 1
209 795 1
209 851 1
210 54 1
210 141 1
210 208 1
210 292 1
210 342 1
210 447 1
210 495 1
210 567 1
210 669 1
210 717 1
210 796 1
210 877 1
211 55 1
211 142 1
211 209 1
211 243 1
211 343 1
211 448 1
211 496 1
211 568 1
211 670 1
211 718 1
211 797 1
211 828 1
212 56 1
212 143 1
212 210 1
212 269 1
212 344 1
212 449 1
212 497 1
212 569 1
212 671 1
212 719 1
212 798 1
212 854 1
213 57 1
213 144 1
213 211 1
213 295 1
213 345 1
213 450 1
213 498 1
213 570 1
213 672 1
213 720 1
213 799 1
213 880 1
214 58 1
214 145 1
214 212 1
214 246 1
214 346 1
214 376 1
214 499 1
214 571 1
214 673 1
214 721 1
214 800 1
214 831 1
215 59 1
215 146 1
215 213 1
215 272 1
215 347 1
215 377 1
215 500 1
215 572 1
215 674 1
215 722 1
215 801 1
215 857 1
216 60 1
216 147 1
216 214 1
216 298 1
216 348 1
216 378 1
216 501 1
216 573 1
216 675 1
216 723 1
216 802 1
216 883 1
217 61 1
217 148 1
217 215 1
217 249 1
217 349 1
217 379 1
217 502 1
217 574 1
217 601 1
217 724 1
217 803 1
217 834 1
218 62 1
218 149 1
218 216 1
218 275 1
218 350 1
218 380 1
218 503 1
218 575 1
218 602 1
218 725 1
218 804 1
218 860 1
219 63 1
219 150 1
219 217 1
219 226 1
219 351 1
219 381 1
219 504 1
219 576 1
219 603 1
219 726 1
219 805 1
219 886 1
220 64 1
220 76 1
220 218 1
220 252 1
220 352 1
220 382 1
220 505 1
220 577 1
220 604 1
220 727 1
220 806 1
220 837 1
221 65 1
221 77 1
221 219 1
221 278 1
221 353 1
221 383 1
221 506 1
221 578 1
221 605 1
221 728 1
221 807 1
221 863 1
222 66 1
222 78 1
222 220 1
222 229 1
222 354 1
222 384 1
222 507 1
222 579 1
222 606 1
222 729 1
222 808 1
222 889 1
223 67 1
223 79 1
223 221 1
223 255 1
223 355 1
223 385 1
223 508 1
223 580 1
223 607 1
223 730 1
223 809 1
223 840 1
224 68 1
224 80 1
224 222 1
224 281 1
224 356 1
224 386 1
224 509 1
224 581 1
224 608 1
224 731 1
224 810 1
224 866 1
225 69 1
225 81 1
225 223 1
225 232 1
225 357 1
225 387 1
225 510 1
225 582 1
225 609 1
225 732 1
225 811 1
225 892 1
