%%MatrixMarket matrix coordinate integer general
%
225 900 2700
1 67 1
1 94 1
1 166 1
1 234 1
1 315 1
1 394 1
1 453 1
1 595 1
1 607 1
1 739 1
1 769 1
1 894 1
2 68 1
2 95 1
2 167 1
2 260 1
2 316 1
2 395 1
2 454 1
2 596 1
2 608 1
2 740 1
2 770 1
2 845 1
3 69 1
3 96 1
3 168 1
3 286 1
3 317 1
3 396 1
3 455 1
3 597 1
3 609 1
3 741 1
3 771 1
3 871 1
4 70 1
4 97 1
4 169 1
4 237 1
4 318 1
4 397 1
4 456 1
4 598 1
4 610 1
4 742 1
4 772 1
4 897 1
5 71 1
5 98 1
5 170 1
5 263 1
5 319 1
5 398 1
5 457 1
5 599 1
5 611 1
5 743 1
5 773 1
5 848 1
6 72 1
6 99 1
6 171 1
6 289 1
6 320 1
6 399 1
6 458 1
6 600 1
6 612 1
6 744 1
6 774 1
6 874 1
7 73 1
7 100 1
7 172 1
7 240 1
7 321 1
7 400 1
7 459 1
7 526 1
7 613 1
7 745 1
7 775 1
7 900 1
8 74 1
8 101 1
8 173 1
8 266 1
8 322 1
8 401 1
8 460 1
8 527 1
8 614 1
8 746 1
8 776 1
8 851 1
9 75 1
9 102 1
9 174 1
9 292 1
9 323 1
9 402 1
9 461 1
9 528 1
9 615 1
9 747 1
9 777 1
9 877 1
10 1 1
10 103 1
10 175 1
10 243 1
10 324 1
10 403 1
10 462 1
10 529 1
10 616 1
10 748 1
10 778 1
10 828 1
11 2 1
11 104 1
11 176 1
11 269 1
11 325 1
11 404 1
11 463 1
11 530 1
11 617 1
11 749 1
11 779 1
11 854 1
12 3 1
12 105 1
12 177 1
12 295 1
12 326 1
12 405 1
12 464 1
12 531 1
12 618 1
12 750 1
12 780 1
12 880 1
13 4 1
13 106 1
13 178 1
13 246 1
13 327 1
13 406 1
13 465 1
13 532 1
13 619 1
13 676 1
13 781 1
13 831 1
14 5 1
14 107 1
14 179 1
14 272 1
14 328 1
14 407 1
14 466 1
14 533 1
14 620 1
14 677 1
14 782 1
14 857 1
15 6 1
15 108 1
15 180 1
15 298 1
15 329 1
15 408 1
15 467 1
15 534 1
15 621 1
15 678 1
15 783 1
15 883 1
16 7 1
16 109 1
16 181 1
16 249 1
16 330 1
16 409 1
16 468 1
16 535 1
16 622 1
16 679 1
16 784 1
16 834 1
17 8 1
17 110 1
17 182 1
17 275 1
17 331 1
17 410 1
17 469 1
17 536 1
17 623 1
17 680 1
17 785 1
17 860 1
18 9 1
18 111 1
18 183 1
18 226 1
18 332 1
18 411 1
18 470 1
18 537 1
18 624 1
18 681 1
18 786 1
18 886 1
19 10 1
19 112 1
19 184 1
19 252 1
19 333 1
19 412 1
19 471 1
19 538 1
19 625 1
19 682 1
19 787 1
19 837 1
20 11 1
20 113 1
20 185 1
20 278 1
20 334 1
20 413 1
20 472 1
20 539 1
20 626 1
20 683 1
20 788 1
20 863 1
21 12 1
21 114 1
21 186 1
21 229 1
21 335 1
21 414 1
21 473 1
21 540 1
21 627 1
21 684 1
21 789 1
21 889 1
22 13 1
22 115 1
22 187 1
22 255 1
22 336 1
22 415 1
22 474 1
22 541 1
22 628 1
22 685 1
22 790 1
22 840 1
23 14 1
23 116 1
23 188 1
23 281 1
23 337 1
23 416 1
23 475 1
23 542 1
23 629 1
23 686 1
23 791 1
23 866 1
24 15 1
24 117 1
24 189 1
24 232 1
24 338 1
24 417 1
24 476 1
24 543 1
24 630 1
24 687 1
24 792 1
24 892 1
25 16 1
25 118 1
25 190 1
25 258 1
25 339 1
25 418 1
25 477 1
25 544 1
25 631 1
25 688 1
25 793 1
25 843 1
26 17 1
26 119 1
26 191 1
26 284 1
26 340 1
26 419 1
26 478 1
26 545 1
26 632 1
26 689 1
26 794 1
26 869 1
27 18 1
27 120 1
27 192 1
27 235 1
27 341 1
27 420 1
27 479 1
27 546 1
27 633 1
27 690 1
27 795 1
27 895 1
28 19 1
28 121 1
28 193 1
28 261 1
28 342 1
28 421 1
28 480 1
28 547 1
28 634 1
28 691 1
28 796 1
28 846 1
29 20 1
29 122 1
29 194 1
29 287 1
29 343 1
29 422 1
29 481 1
29 548 1
29 635 1
29 692 1
29 797 1
29 872 1
30 21 1
30 123 1
30 195 1
30 238 1
30 344 1
30 423 1
30 482 1
30 549 1
30 636 1
30 693 1
30 798 1
30 898 1
31 22 1
31 124 1
31 196 1
31 264 1
31 345 1
31 424 1
31 483 1
31 550 1
31 637 1
31 694 1
31 799 1
31 849 1
32 23 1
32 125 1
32 197 1
32 290 1
32 346 1
32 425 1
32 484 1
32 551 1
32 638 1
32 695 1
32 800 1
32 875 1
33 24 1
33 126 1
33 198 1
33 241 1
33 347 1
33 426 1
33 485 1
33 552 1
33 639 1
33 696 1
33 801 1
33 826 1
34 25 1
34 127 1
34 199 1
34 267 1
34 348 1
34 427 1
34 486 1
34 553 1
34 640 1
34 697 1
34 802 1
34 852 1
35 26 1
35 128 1
35 200 1
35 293 1
35 349 1
35 428 1
35 487 1
35 554 1
35 641 1
35 698 1
35 803 1
35 878 1
36 27 1
36 129 1
36 201 1
36 244 1
36 350 1
36 429 1
36 488 1
36 555 1
36 642 1
36 699 1
36 804 1
36 829 1
37 28 1
37 130 1
37 202 1
37 270 1
37 351 1
37 430 1
37 489 1
37 556 1
37 643 1
37 700 1
37 805 1
37 855 1
38 29 1
38 131 1
38 203 1
38 296 1
38 352 1
38 431 1
38 490 1
38 557 1
38 644 1
38 701 1
38 806 1
38 881 1
39 30 1
39 132 1
39 204 1
39 247 1
39 353 1
39 432 1
39 491 1
39 558 1
39 645 1
39 702 1
39 807 1
39 832 1
40 31 1
40 133 1
40 205 1
40 273 1
40 354 1
40 433 1
40 492 1
40 559 1
40 646 1
40 703 1
40 808 1
40 858 1
41 32 1
41 134 1
41 206 1
41 299 1
41 355 1
41 434 1
41 493 1
41 560 1
41 647 1
41 704 1
41 809 1
41 884 1
42 33 1
42 135 1
42 207 1
42 250 1
42 356 1
42 435 1
42 494 1
42 561 1
42 648 1
42 705 1
42 810 1
42 835 1
43 34 1
43 136 1
43 208 1
43 276 1
43 357 1
43 436 1
43 495 1
43 562 1
43 649 1
43 706 1
43 811 1
43 861 1
44 35 1
44 137 1
44 209 1
44 227 1
44 358 1
44 437 1
44 496 1
44 563 1
44 650 1
44 707 1
44 812 1
44 887 1
45 36 1
45 138 1
45 210 1
45 253 1
45 359 1
45 438 1
45 497 1
45 564 1
45 651 1
45 708 1
45 813 1
45 838 1
46 37 1
46 139 1
46 211 1
46 279 1
46 360 1
46 439 1
46 498 1
46 565 1
46 652 1
46 709 1
46 814 1
46 864 1
47 38 1
47 140 1
47 212 1
47 230 1
47 361 1
47 440 1
47 499 1
47 566 1
47 653 1
47 710 1
47 815 1
47 890 1
48 39 1
48 141 1
48 213 1
48 256 1
48 362 1
48 441 1
48 500 1
48 567 1
48 654 1
48 711 1
48 816 1
48 841 1
49 40 1
49 142 1
49 214 1
49 282 1
49 363 1
49 442 1
49 501 1
49 568 1
49 655 1
49 712 1
49 817 1
49 867 1
50 41 1
50 143 1
50 215 1
50 233 1
50 364 1
50 443 1
50 502 1
50 569 1
50 656 1
50 713 1
50 818 1
50 893 1
51 42 1
51 144 1
51 216 1
51 259 1
51 365 1
51 444 1
51 503 1
51 570 1
51 657 1
51 714 1
51 819 1
51 844 1
52 43 1
52 145 1
52 217 1
52 285 1
52 366 1
52 445 1
52 504 1
52 571 1
52 658 1
52 715 1
52 820 1
52 870 1
53 44 1
53 146 1
53 218 1
53 236 1
53 367 1
53 446 1
53 505 1
53 572 1
53 659 1
53 716 1
53 821 1
53 896 1
54 45 1
54 147 1
54 219 1
54 262 1
54 368 1
54 447 1
54 506 1
54 573 1
54 660 1
54 717 1
54 822 1
54 847 1
55 46 1
55 148 1
55 220 1
55 288 1
55 369 1
55 448 1
55 507 1
55 574 1
55 661 1
55 718 1
55 823 1
55 873 1
56 47 1
56 149 1
56 221 1
56 239 1
56 370 1
56 449 1
56 508 1
56 575 1
56 662 1
56 719 1
56 824 1
56 899 1
57 48 1
57 150 1
57 222 1
57 265 1
57 371 1
57 450 1
57 509 1
57 576 1
57 663 1
57 720 1
57 825 1
57 850 1
58 49 1
58 76 1
58 223 1
58 291 1
58 372 1
58 376 1
58 510 1
58 577 1
58 664 1
58 721 1
58 751 1
58 876 1
59 50 1
59 77 1
59 224 1
59 242 1
59 373 1
59 377 1
59 511 1
59 578 1
59 665 1
59 722 1
59 752 1
59 827 1
60 51 1
60 78 1
60 225 1
60 268 1
60 374 1
60 378 1
60 512 1
60 579 1
60 666 1
60 723 1
60 753 1
60 853 1
61 52 1
61 79 1
61 151 1
61 294 1
61 375 1
61 379 1
61 513 1
61 580 1
61 667 1
61 724 1
61 754 1
61 879 1
62 53 1
62 80 1
62 152 1
62 245 1
62 301 1
62 380 1
62 514 1
62 581 1
62 668 1
62 725 1
62 755 1
62 830 1
63 54 1
63 81 1
63 153 1
63 271 1
63 302 1
63 381 1
63 515 1
63 582 1
63 669 1
63 726 1
63 756 1
63 856 1
64 55 1
64 82 1
64 154 1
64 297 1
64 303 1
64 382 1
64 516 1
64 583 1
64 670 1
64 727 1
64 757 1
64 882 1
65 56 1
65 83 1
65 155 1
65 248 1
65 304 1
65 383 1
65 517 1
65 584 1
65 671 1
65 728 1
65 758 1
65 833 1
66 57 1
66 84 1
66 156 1
66 274 1
66 305 1
66 384 1
66 518 1
66 585 1
66 672 1
66 729 1
66 759 1
66 859 1
67 58 1
67 85 1
67 157 1
67 300 1
67 306 1
67 385 1
67 519 1
67 586 1
67 673 1
67 730 1
67 760 1
67 885 1
68 59 1
68 86 1
68 158 1
68 251 1
68 307 1
68 386 1
68 520 1
68 587 1
68 674 1
68 731 1
68 761 1
68 836 1
69 60 1
69 87 1
69 159 1
69 277 1
69 308 1
69 387 1
69 521 1
69 588 1
69 675 1
69 732 1
69 762 1
69 862 1
70 61 1
70 88 1
70 160 1
70 228 1
70 309 1
70 388 1
70 522 1
70 589 1
70 601 1
70 733 1
70 763 1
70 888 1
71 62 1
71 89 1
71 161 1
71 254 1
71 310 1
71 389 1
71 523 1
71 590 1
71 602 1
71 734 1
71 764 1
71 839 1
72 63 1
72 90 1
72 162 1
72 280 1
72 311 1
72 390 1
72 524 1
72 591 1
72 603 1
72 735 1
72 765 1
72 865 1
73 64 1
73 91 1
73 163 1
73 231 1
73 312 1
73 391 1
73 525 1
73 592 1
73 604 1
73 736 1
73 766 1
73 891 1
74 65 1
74 92 1
74 164 1
74 257 1
74 313 1
74 392 1
74 451 1
74 593 1
74 605 1
74 737 1
74 767 1
74 842 1
75 66 1
75 93 1
75 165 1
75 283 1
75 314 1
75 393 1
75 452 1
75 594 1
75 606 1
75 738 1
75 768 1
75 868 1
76 19 1
76 142 1
76 169 1
76 241 1
76 309 1
76 390 1
76 519 1
76 528 1
76 670 1
76 682 1
76 814 1
76 844 1
77 20 1
77 143 1
77 170 1
77 242 1
77 335 1
77 391 1
77 470 1
77 529 1
77 671 1
77 683 1
77 815 1
77 845 1
78 21 1
78 144 1
78 171 1
78 243 1
78 361 1
78 392 1
78 496 1
78 530 1
78 672 1
78 684 1
78 816 1
78 846 1
79 22 1
79 145 1
79 172 1
79 244 1
79 312 1
79 393 1
79 522 1
79 531 1
79 673 1
79 685 1
79 817 1
79 847 1
80 23 1
80 146 1
80 173 1
80 245 1
80 338 1
80 394 1
80 473 1
80 532 1
80 674 1
80 686 1
80 818 1
80 848 1
81 24 1
81 147 1
81 174 1
81 246 1
81 364 1
81 395 1
81 499 1
81 533 1
81 675 1
81 687 1
81 819 1
81 849 1
82 25 1
82 148 1
82 175 1
82 247 1
82 315 1
82 396 1
82 525 1
82 534 1
82 601 1
82 688 1
82 820 1
82 850 1
83 26 1
83 149 1
83 176 1
83 248 1
83 341 1
83 397 1
83 476 1
83 535 1
83 602 1
83 689 1
83 821 1
83 851 1
84 27 1
84 150 1
84 177 1
84 249 1
84 367 1
84 398 1
84 502 1
84 536 1
84 603 1
84 690 1
84 822 1
84 852 1
85 28 1
85 76 1
85 178 1
85 250 1
85 318 1
85 399 1
85 453 1
85 537 1
85 604 1
85 691 1
85 823 1
85 853 1
86 29 1
86 77 1
86 179 1
86 251 1
86 344 1
86 400 1
86 479 1
86 538 1
86 605 1
86 692 1
86 824 1
86 854 1
87 30 1
87 78 1
87 180 1
87 252 1
87 370 1
87 401 1
87 505 1
87 539 1
87 606 1
87 693 1
87 825 1
87 855 1
88 31 1
88 79 1
88 181 1
88 253 1
88 321 1
88 402 1
88 456 1
88 540 1
88 607 1
88 694 1
88 751 1
88 856 1
89 32 1
89 80 1
89 182 1
89 254 1
89 347 1
89 403 1
89 482 1
89 541 1
89 608 1
89 695 1
89 752 1
89 857 1
90 33 1
90 81 1
90 183 1
90 255 1
90 373 1
90 404 1
90 508 1
90 542 1
90 609 1
90 696 1
90 753 1
90 858 1
91 34 1
91 82 1
91 184 1
91 256 1
91 324 1
91 405 1
91 459 1
91 543 1
91 610 1
91 697 1
91 754 1
91 859 1
92 35 1
92 83 1
92 185 1
92 257 1
92 350 1
92 406 1
92 485 1
92 544 1
92 611 1
92 698 1
92 755 1
92 860 1
93 36 1
93 84 1
93 186 1
93 258 1
93 301 1
93 407 1
93 511 1
93 545 1
93 612 1
93 699 1
93 756 1
93 861 1
94 37 1
94 85 1
94 187 1
94 259 1
94 327 1
94 408 1
94 462 1
94 546 1
94 613 1
94 700 1
94 757 1
94 862 1
95 38 1
95 86 1
95 188 1
95 260 1
95 353 1
95 409 1
95 488 1
95 547 1
95 614 1
95 701 1
95 758 1
95 863 1
96 39 1
96 87 1
96 189 1
96 261 1
96 304 1
96 410 1
96 514 1
96 548 1
96 615 1
96 702 1
96 759 1
96 864 1
97 40 1
97 88 1
97 190 1
97 262 1
97 330 1
97 411 1
97 465 1
97 549 1
97 616 1
97 703 1
97 760 1
97 865 1
98 41 1
98 89 1
98 191 1
98 263 1
98 356 1
98 412 1
98 491 1
98 550 1
98 617 1
98 704 1
98 761 1
98 866 1
99 42 1
99 90 1
99 192 1
99 264 1
99 307 1
99 413 1
99 517 1
99 551 1
99 618 1
99 705 1
99 762 1
99 867 1
100 43 1
100 91 1
100 193 1
100 265 1
100 333 1
100 414 1
100 468 1
100 552 1
100 619 1
100 706 1
100 763 1
100 868 1
101 44 1
101 92 1
101 194 1
101 266 1
101 359 1
101 415 1
101 494 1
101 553 1
101 620 1
101 707 1
101 764 1
101 869 1
102 45 1
102 93 1
102 195 1
102 267 1
102 310 1
102 416 1
102 520 1
102 554 1
102 621 1
102 708 1
102 765 1
102 870 1
103 46 1
103 94 1
103 196 1
103 268 1
103 336 1
103 417 1
103 471 1
103 555 1
103 622 1
103 709 1
103 766 1
103 871 1
104 47 1
104 95 1
104 197 1
104 269 1
104 362 1
104 418 1
104 497 1
104 556 1
104 623 1
104 710 1
104 767 1
104 872 1
105 48 1
105 96 1
105 198 1
105 270 1
105 313 1
105 419 1
105 523 1
105 557 1
105 624 1
105 711 1
105 768 1
105 873 1
106 49 1
106 97 1
106 199 1
106 271 1
106 339 1
106 420 1
106 474 1
106 558 1
106 625 1
106 712 1
106 769 1
106 874 1
107 50 1
107 98 1
107 200 1
107 272 1
107 365 1
107 421 1
107 500 1
107 559 1
107 626 1
107 713 1
107 770 1
107 875 1
108 51 1
108 99 1
108 201 1
108 273 1
108 316 1
108 422 1
108 451 1
108 560 1
108 627 1
108 714 1
108 771 1
108 876 1
109 52 1
109 100 1
109 202 1
109 274 1
109 342 1
109 423 1
109 477 1
109 561 1
109 628 1
109 715 1
109 772 1
109 877 1
110 53 1
110 101 1
110 203 1
110 275 1
110 368 1
110 424 1
110 503 1
110 562 1
110 629 1
110 716 1
110 773 1
110 878 1
111 54 1
111 102 1
111 204 1
111 276 1
111 319 1
111 425 1
111 454 1
111 563 1
111 630 1
111 717 1
111 774 1
111 879 1
112 55 1
112 103 1
112 205 1
112 277 1
112 345 1
112 426 1
112 480 1
112 564 1
112 631 1
112 718 1
112 775 1
112 880 1
113 56 1
113 104 1
113 206 1
113 278 1
113 371 1
113 427 1
113 506 1
113 565 1
113 632 1
113 719 1
113 776 1
113 881 1
114 57 1
114 105 1
114 207 1
114 279 1
114 322 1
114 428 1
114 457 1
114 566 1
114 633 1
114 720 1
114 777 1
114 882 1
115 58 1
115 106 1
115 208 1
115 280 1
115 348 1
115 429 1
115 483 1
115 567 1
115 634 1
115 721 1
115 778 1
115 883 1
116 59 1
116 107 1
116 209 1
116 281 1
116 374 1
116 430 1
116 509 1
116 568 1
116 635 1
116 722 1
116 779 1
116 884 1
117 60 1
117 108 1
117 210 1
117 282 1
117 325 1
117 431 1
117 460 1
117 569 1
117 636 1
117 723 1
117 780 1
117 885 1
118 61 1
118 109 1
118 211 1
118 283 1
118 351 1
118 432 1
118 486 1
118 570 1
118 637 1
118 724 1
118 781 1
118 886 1
119 62 1
119 110 1
119 212 1
119 284 1
119 302 1
119 433 1
119 512 1
119 571 1
119 638 1
119 725 1
119 782 1
119 887 1
120 63 1
120 111 1
120 213 1
120 285 1
120 328 1
120 434 1
120 463 1
120 572 1
120 639 1
120 726 1
120 783 1
120 888 1
121 64 1
121 112 1
121 214 1
121 286 1
121 354 1
121 435 1
121 489 1
121 573 1
121 640 1
121 727 1
121 784 1
121 889 1
122 65 1
122 113 1
122 215 1
122 287 1
122 305 1
122 436 1
122 515 1
122 574 1
122 641 1
122 728 1
122 785 1
122 890 1
123 66 1
123 114 1
123 216 1
123 288 1
123 331 1
123 437 1
123 466 1
123 575 1
123 642 1
123 729 1
123 786 1
123 891 1
124 67 1
124 115 1
124 217 1
124 289 1
124 357 1
124 438 1
124 492 1
124 576 1
124 643 1
124 730 1
124 787 1
124 892 1
125 68 1
125 116 1
125 218 1
125 290 1
125 308 1
125 439 1
125 518 1
125 577 1
125 644 1
125 731 1
125 788 1
125 893 1
126 69 1
126 117 1
126 219 1
126 291 1
126 334 1
126 440 1
126 469 1
126 578 1
126 645 1
126 732 1
126 789 1
126 894 1
127 70 1
127 118 1
127 220 1
127 292 1
127 360 1
127 441 1
127 495 1
127 579 1
127 646 1
127 733 1
127 790 1
127 895 1
128 71 1
128 119 1
128 221 1
128 293 1
128 311 1
128 442 1
128 521 1
128 580 1
128 647 1
128 734 1
128 791 1
128 896 1
129 72 1
129 120 1
129 222 1
129 294 1
129 337 1
129 443 1
129 472 1
129 581 1
129 648 1
129 735 1
129 792 1
129 897 1
130 73 1
130 121 1
130 223 1
130 295 1
130 363 1
130 444 1
130 498 1
130 582 1
130 649 1
130 736 1
130 793 1
130 898 1
131 74 1
131 122 1
131 224 1
131 296 1
131 314 1
131 445 1
131 524 1
131 583 1
131 650 1
131 737 1
131 794 1
131 899 1
132 75 1
132 123 1
132 225 1
132 297 1
132 340 1
132 446 1
132 475 1
132 584 1
132 651 1
132 738 1
132 795 1
132 900 1
133 1 1
133 124 1
133 151 1
133 298 1
133 366 1
133 447 1
133 501 1
133 585 1
133 652 1
133 739 1
133 796 1
133 826 1
134 2 1
134 125 1
134 152 1
134 299 1
134 317 1
134 448 1
134 452 1
134 586 1
134 653 1
134 740 1
134 797 1
134 827 1
135 3 1
135 126 1
135 153 1
135 300 1
135 343 1
135 449 1
135 478 1
135 587 1
135 654 1
135 741 1
135 798 1
135 828 1
136 4 1
136 127 1
136 154 1
136 226 1
136 369 1
136 450 1
136 504 1
136 588 1
136 655 1
136 742 1
136 799 1
136 829 1
137 5 1
137 128 1
137 155 1
137 227 1
137 320 1
137 376 1
137 455 1
137 589 1
137 656 1
137 743 1
137 800 1
137 830 1
138 6 1
138 129 1
138 156 1
138 228 1
138 346 1
138 377 1
138 481 1
138 590 1
138 657 1
138 744 1
138 801 1
138 831 1
139 7 1
139 130 1
139 157 1
139 229 1
139 372 1
139 378 1
139 507 1
139 591 1
139 658 1
139 745 1
139 802 1
139 832 1
140 8 1
140 131 1
140 158 1
140 230 1
140 323 1
140 379 1
140 458 1
140 592 1
140 659 1
140 746 1
140 803 1
140 833 1
141 9 1
141 132 1
141 159 1
141 231 1
141 349 1
141 380 1
141 484 1
141 593 1
141 660 1
141 747 1
141 804 1
141 834 1
142 10 1
142 133 1
142 160 1
142 232 1
142 375 1
142 381 1
142 510 1
142 594 1
142 661 1
142 748 1
142 805 1
142 835 1
143 11 1
143 134 1
143 161 1
143 233 1
143 326 1
143 382 1
143 461 1
143 595 1
143 662 1
143 749 1
143 806 1
143 836 1
144 12 1
144 135 1
144 162 1
144 234 1
144 352 1
144 383 1
144 487 1
144 596 1
144 663 1
144 750 1
144 807 1
144 837 1
145 13 1
145 136 1
145 163 1
145 235 1
145 303 1
145 384 1
145 513 1
145 597 1
145 664 1
145 676 1
145 808 1
145 838 1
146 14 1
146 137 1
146 164 1
146 236 1
146 329 1
146 385 1
146 464 1
146 598 1
146 665 1
146 677 1
146 809 1
146 839 1
147 15 1
147 138 1
147 165 1
147 237 1
147 355 1
147 386 1
147 490 1
147 599 1
147 666 1
147 678 1
147 810 1
147 840 1
148 16 1
148 139 1
148 166 1
148 238 1
148 306 1
148 387 1
148 516 1
148 600 1
148 667 1
148 679 1
148 811 1
148 841 1
149 17 1
149 140 1
149 167 1
149 239 1
149 332 1
149 388 1
149 467 1
149 526 1
149 668 1
149 680 1
149 812 1
149 842 1
150 18 1
150 141 1
150 168 1
150 240 1
150 358 1
150 389 1
150 493 1
150 527 1
150 669 1
150 681 1
150 813 1
150 843 1
151 15 1
151 94 1
151 217 1
151 244 1
151 316 1
151 384 1
151 469 1
151 594 1
151 603 1
151 745 1
151 757 1
151 889 1
152 16 1
152 95 1
152 218 1
152 245 1
152 317 1
152 410 1
152 470 1
152 545 1
152 604 1
152 746 1
152 758 1
152 890 1
153 17 1
153 96 1
153 219 1
153 246 1
153 318 1
153 436 1
153 471 1
153 571 1
153 605 1
153 747 1
153 759 1
153 891 1
154 18 1
154 97 1
154 220 1
154 247 1
154 319 1
154 387 1
154 472 1
154 597 1
154 606 1
154 748 1
154 760 1
154 892 1
155 19 1
155 98 1
155 221 1
155 248 1
155 320 1
155 413 1
155 473 1
155 548 1
155 607 1
155 749 1
155 761 1
155 893 1
156 20 1
156 99 1
156 222 1
156 249 1
156 321 1
156 439 1
156 474 1
156 574 1
156 608 1
156 750 1
156 762 1
156 894 1
157 21 1
157 100 1
157 223 1
157 250 1
157 322 1
157 390 1
157 475 1
157 600 1
157 609 1
157 676 1
157 763 1
157 895 1
158 22 1
158 101 1
158 224 1
158 251 1
158 323 1
158 416 1
158 476 1
158 551 1
158 610 1
158 677 1
158 764 1
158 896 1
159 23 1
159 102 1
159 225 1
159 252 1
159 324 1
159 442 1
159 477 1
159 577 1
159 611 1
159 678 1
159 765 1
159 897 1
160 24 1
160 103 1
160 151 1
160 253 1
160 325 1
160 393 1
160 478 1
160 528 1
160 612 1
160 679 1
160 766 1
160 898 1
161 25 1
161 104 1
161 152 1
161 254 1
161 326 1
161 419 1
161 479 1
161 554 1
161 613 1
161 680 1
161 767 1
161 899 1
162 26 1
162 105 1
162 153 1
162 255 1
162 327 1
162 445 1
162 480 1
162 580 1
162 614 1
162 681 1
162 768 1
162 900 1
163 27 1
163 106 1
163 154 1
163 256 1
163 328 1
163 396 1
163 481 1
163 531 1
163 615 1
163 682 1
163 769 1
163 826 1
164 28 1
164 107 1
164 155 1
164 257 1
164 329 1
164 422 1
164 482 1
164 557 1
164 616 1
164 683 1
164 770 1
164 827 1
165 29 1
165 108 1
165 156 1
165 258 1
165 330 1
165 448 1
165 483 1
165 583 1
165 617 1
165 684 1
165 771 1
165 828 1
166 30 1
166 109 1
166 157 1
166 259 1
166 331 1
166 399 1
166 484 1
166 534 1
166 618 1
166 685 1
166 772 1
166 829 1
167 31 1
167 110 1
167 158 1
167 260 1
167 332 1
167 425 1
167 485 1
167 560 1
167 619 1
167 686 1
167 773 1
167 830 1
168 32 1
168 111 1
168 159 1
168 261 1
168 333 1
168 376 1
168 486 1
168 586 1
168 620 1
168 687 1
168 774 1
168 831 1
169 33 1
169 112 1
169 160 1
169 262 1
169 334 1
169 402 1
169 487 1
169 537 1
169 621 1
169 688 1
169 775 1
169 832 1
170 34 1
170 113 1
170 161 1
170 263 1
170 335 1
170 428 1
170 488 1
170 563 1
170 622 1
170 689 1
170 776 1
170 833 1
171 35 1
171 114 1
171 162 1
171 264 1
171 336 1
171 379 1
171 489 1
171 589 1
171 623 1
171 690 1
171 777 1
171 834 1
172 36 1
172 115 1
172 163 1
172 265 1
172 337 1
172 405 1
172 490 1
172 540 1
172 624 1
172 691 1
172 778 1
172 835 1
173 37 1
173 116 1
173 164 1
173 266 1
173 338 1
173 431 1
173 491 1
173 566 1
173 625 1
173 692 1
173 779 1
173 836 1
174 38 1
174 117 1
174 165 1
174 267 1
174 339 1
174 382 1
174 492 1
174 592 1
174 626 1
174 693 1
174 780 1
174 837 1
175 39 1
175 118 1
175 166 1
175 268 1
175 340 1
175 408 1
175 493 1
175 543 1
175 627 1
175 694 1
175 781 1
175 838 1
176 40 1
176 119 1
176 167 1
176 269 1
176 341 1
176 434 1
176 494 1
176 569 1
176 628 1
176 695 1
176 782 1
176 839 1
177 41 1
177 120 1
177 168 1
177 270 1
177 342 1
177 385 1
177 495 1
177 595 1
177 629 1
177 696 1
177 783 1
177 840 1
178 42 1
178 121 1
178 169 1
178 271 1
178 343 1
178 411 1
178 496 1
178 546 1
178 630 1
178 697 1
178 784 1
178 841 1
179 43 1
179 122 1
179 170 1
179 272 1
179 344 1
179 437 1
179 497 1
179 572 1
179 631 1
179 698 1
179 785 1
179 842 1
180 44 1
180 123 1
180 171 1
180 273 1
180 345 1
180 388 1
180 498 1
180 598 1
180 632 1
180 699 1
180 786 1
180 843 1
181 45 1
181 124 1
181 172 1
181 274 1
181 346 1
181 414 1
181 499 1
181 549 1
181 633 1
181 700 1
181 787 1
181 844 1
182 46 1
182 125 1
182 173 1
182 275 1
182 347 1
182 440 1
182 500 1
182 575 1
182 634 1
182 701 1
182 788 1
182 845 1
183 47 1
183 126 1
183 174 1
183 276 1
183 348 1
183 391 1
183 501 1
183 526 1
183 635 1
183 702 1
183 789 1
183 846 1
184 48 1
184 127 1
184 175 1
184 277 1
184 349 1
184 417 1
184 502 1
184 552 1
184 636 1
184 703 1
184 790 1
184 847 1
185 49 1
185 128 1
185 176 1
185 278 1
185 350 1
185 443 1
185 503 1
185 578 1
185 637 1
185 704 1
185 791 1
185 848 1
186 50 1
186 129 1
186 177 1
186 279 1
186 351 1
186 394 1
186 504 1
186 529 1
186 638 1
186 705 1
186 792 1
186 849 1
187 51 1
187 130 1
187 178 1
187 280 1
187 352 1
187 420 1
187 505 1
187 555 1
187 639 1
187 706 1
187 793 1
187 850 1
188 52 1
188 131 1
188 179 1
188 281 1
188 353 1
188 446 1
188 506 1
188 581 1
188 640 1
188 707 1
188 794 1
188 851 1
189 53 1
189 132 1
189 180 1
189 282 1
189 354 1
189 397 1
189 507 1
189 532 1
189 641 1
189 708 1
189 795 1
189 852 1
190 54 1
190 133 1
190 181 1
190 283 1
190 355 1
190 423 1
190 508 1
190 558 1
190 642 1
190 709 1
190 796 1
190 853 1
191 55 1
191 134 1
191 182 1
191 284 1
191 356 1
191 449 1
191 509 1
191 584 1
191 643 1
191 710 1
191 797 1
191 854 1
192 56 1
192 135 1
192 183 1
192 285 1
192 357 1
192 400 1
192 510 1
192 535 1
192 644 1
192 711 1
192 798 1
192 855 1
193 57 1
193 136 1
193 184 1
193 286 1
193 358 1
193 426 1
193 511 1
193 561 1
193 645 1
193 712 1
193 799 1
193 856 1
194 58 1
194 137 1
194 185 1
194 287 1
194 359 1
194 377 1
194 512 1
194 587 1
194 646 1
194 713 1
194 800 1
194 857 1
195 59 1
195 138 1
195 186 1
195 288 1
195 360 1
195 403 1
195 513 1
195 538 1
195 647 1
195 714 1
195 801 1
195 858 1
196 60 1
196 139 1
196 187 1
196 289 1
196 361 1
196 429 1
196 514 1
196 564 1
196 648 1
196 715 1
196 802 1
196 859 1
197 61 1
197 140 1
197 188 1
197 290 1
197 362 1
197 380 1
197 515 1
197 590 1
197 649 1
197 716 1
197 803 1
197 860 1
198 62 1
198 141 1
198 189 1
198 291 1
198 363 1
198 406 1
198 516 1
198 541 1
198 650 1
198 717 1
198 804 1
198 861 1
199 63 1
199 142 1
199 190 1
199 292 1
199 364 1
199 432 1
199 517 1
199 567 1
199 651 1
199 718 1
199 805 1
199 862 1
200 64 1
200 143 1
200 191 1
200 293 1
200 365 1
200 383 1
200 518 1
200 593 1
200 652 1
200 719 1
200 806 1
200 863 1
201 65 1
201 144 1
201 192 1
201 294 1
201 366 1
201 409 1
201 519 1
201 544 1
201 653 1
201 720 1
201 807 1
201 864 1
202 66 1
202 145 1
202 193 1
202 295 1
202 367 1
202 435 1
202 520 1
202 570 1
202 654 1
202 721 1
202 808 1
202 865 1
203 67 1
203 146 1
203 194 1
203 296 1
203 368 1
203 386 1
203 521 1
203 596 1
203 655 1
203 722 1
203 809 1
203 866 1
204 68 1
204 147 1
204 195 1
204 297 1
204 369 1
204 412 1
204 522 1
204 547 1
204 656 1
204 723 1
204 810 1
204 867 1
205 69 1
205 148 1
205 196 1
205 298 1
205 370 1
205 438 1
205 523 1
205 573 1
205 657 1
205 724 1
205 811 1
205 868 1
206 70 1
206 149 1
206 197 1
206 299 1
206 371 1
206 389 1
206 524 1
206 599 1
206 658 1
206 725 1
206 812 1
206 869 1
207 71 1
207 150 1
207 198 1
207 300 1
207 372 1
207 415 1
207 525 1
207 550 1
207 659 1
207 726 1
207 813 1
207 870 1
208 72 1
208 76 1
208 199 1
208 226 1
208 373 1
208 441 1
208 451 1
208 576 1
208 660 1
208 727 1
208 814 1
208 871 1
209 73 1
209 77 1
209 200 1
209 227 1
209 374 1
209 392 1
209 452 1
209 527 1
209 661 1
209 728 1
209 815 1
209 872 1
210 74 1
210 78 1
210 201 1
210 228 1
210 375 1
210 418 1
210 453 1
210 553 1
210 662 1
210 729 1
210 816 1
210 873 1
211 75 1
211 79 1
211 202 1
211 229 1
211 301 1
211 444 1
211 454 1
211 579 1
211 663 1
211 730 1
211 817 1
211 874 1
212 1 1
212 80 1
212 203 1
212 230 1
212 302 1
212 395 1
212 455 1
212 530 1
212 664 1
212 731 1
212 818 1
212 875 1
213 2 1
213 81 1
213 204 1
213 231 1
213 303 1
213 421 1
213 456 1
213 556 1
213 665 1
213 732 1
213 819 1
213 876 1
214 3 1
214 82 1
214 205 1
214 232 1
214 304 1
214 447 1
214 457 1
214 582 1
214 666 1
214 733 1
214 820 1
214 877 1
215 4 1
215 83 1
215 206 1
215 233 1
215 305 1
215 398 1
215 458 1
215 533 1
215 667 1
215 734 1
215 821 1
215 878 1
216 5 1
216 84 1
216 207 1
216 234 1
216 306 1
216 424 1
216 459 1
216 559 1
216 668 1
216 735 1
216 822 1
216 879 1
217 6 1
217 85 1
217 208 1
217 235 1
217 307 1
217 450 1
217 460 1
217 585 1
217 669 1
217 736 1
217 823 1
217 880 1
218 7 1
218 86 1
218 209 1
218 236 1
218 308 1
218 401 1
218 461 1
218 536 1
218 670 1
218 737 1
218 824 1
218 881 1
219 8 1
219 87 1
219 210 1
219 237 1
219 309 1
219 427 1
219 462 1
219 562 1
219 671 1
219 738 1
219 825 1
219 882 1
220 9 1
220 88 1
220 211 1
220 238 1
220 310 1
220 378 1
220 463 1
220 588 1
220 672 1
220 739 1
220 751 1
220 883 1
221 10 1
221 89 1
221 212 1
221 239 1
221 311 1
221 404 1
221 464 1
221 539 1
221 673 1
221 740 1
221 752 1
221 884 1
222 11 1
222 90 1
222 213 1
222 240 1
222 312 1
222 430 1
222 465 1
222 565 1
222 674 1
222 741 1
222 753 1
222 885 1
223 12 1
223 91 1
223 214 1
223 241 1
223 313 1
223 381 1
223 466 1
223 591 1
223 675 1
223 742 1
223 754 1
223 886 1
224 13 1
224 92 1
224 215 1
224 242 1
224 314 1
224 407 1
224 467 1
224 542 1
224 601 1
224 743 1
224 755 1
224 887 1
225 14 1
225 93 1
225 216 1
225 243 1
225 315 1
225 433 1
225 468 1
225 568 1
225 602 1
225 744 1
225 756 1
225 888 1
