%%MatrixMarket matrix coordinate integer general
%
441 1764 5292
1 106 1
1 217 1
1 397 1
1 543 1
1 606 1
1 796 1
1 888 1
1 1072 1
1 1204 1
1 1348 1
1 1585 1
1 1662 1
2 107 1
2 218 1
2 398 1
2 446 1
2 607 1
2 797 1
2 889 1
2 1073 1
2 1205 1
2 1349 1
2 1586 1
2 1712 1
3 108 1
3 219 1
3 399 1
3 496 1
3 608 1
3 798 1
3 890 1
3 1074 1
3 1206 1
3 1350 1
3 1587 1
3 1762 1
4 109 1
4 220 1
4 400 1
4 546 1
4 609 1
4 799 1
4 891 1
4 1075 1
4 1207 1
4 1351 1
4 1588 1
4 1665 1
5 110 1
5 221 1
5 401 1
5 449 1
5 610 1
5 800 1
5 892 1
5 1076 1
5 1208 1
5 1352 1
5 1589 1
5 1715 1
6 111 1
6 222 1
6 402 1
6 499 1
6 611 1
6 801 1
6 893 1
6 1077 1
6 1209 1
6 1353 1
6 1590 1
6 1618 1
7 112 1
7 223 1
7 403 1
7 549 1
7 612 1
7 802 1
7 894 1
7 1078 1
7 1210 1
7 1354 1
7 1591 1
7 1668 1
8 113 1
8 224 1
8 404 1
8 452 1
8 613 1
8 803 1
8 895 1
8 1079 1
8 1211 1
8 1355 1
8 1592 1
8 1718 1
9 114 1
9 225 1
9 405 1
9 502 1
9 614 1
9 804 1
9 896 1
9 1080 1
9 1212 1
9 1356 1
9 1593 1
9 1621 1
10 115 1
10 226 1
10 406 1
10 552 1
10 615 1
10 805 1
10 897 1
10 1081 1
10 1213 1
10 1357 1
10 1594 1
10 1671 1
11 116 1
11 227 1
11 407 1
11 455 1
11 616 1
11 806 1
11 898 1
11 1082 1
11 1214 1
11 1358 1
11 1595 1
11 1721 1
12 117 1
12 228 1
12 408 1
12 505 1
12 617 1
12 807 1
12 899 1
12 1083 1
12 1215 1
12 1359 1
12 1596 1
12 1624 1
13 118 1
13 229 1
13 409 1
13 555 1
13 618 1
13 808 1
13 900 1
13 1084 1
13 1216 1
13 1360 1
13 1597 1
13 1674 1
14 119 1
14 230 1
14 410 1
14 458 1
14 619 1
14 809 1
14 901 1
14 1085 1
14 1217 1
14 1361 1
14 1598 1
14 1724 1
15 120 1
15 231 1
15 411 1
15 508 1
15 620 1
15 810 1
15 902 1
15 1086 1
15 1218 1
15 1362 1
15 1599 1
15 1627 1
16 121 1
16 232 1
16 412 1
16 558 1
16 621 1
16 811 1
16 903 1
16 1087 1
16 1219 1
16 1363 1
16 1600 1
16 1677 1
17 122 1
17 233 1
17 413 1
17 461 1
17 622 1
17 812 1
17 904 1
17 1088 1
17 1220 1
17 1364 1
17 1601 1
17 1727 1
18 123 1
18 234 1
18 414 1
18 511 1
18 623 1
18 813 1
18 905 1
18 1089 1
18 1221 1
18 1365 1
18 1602 1
18 1630 1
19 124 1
19 235 1
19 415 1
19 561 1
19 624 1
19 814 1
19 906 1
19 1090 1
19 1222 1
19 1366 1
19 1603 1
19 1680 1
20 125 1
20 236 1
20 416 1
20 464 1
20 625 1
20 815 1
20 907 1
20 1091 1
20 1223 1
20 1367 1
20 1604 1
20 1730 1
21 126 1
21 237 1
21 417 1
21 514 1
21 626 1
21 816 1
21 908 1
21 1092 1
21 1224 1
21 1368 1
21 1605 1
21 1633 1
22 127 1
22 238 1
22 418 1
22 564 1
22 627 1
22 817 1
22 909 1
22 1093 1
22 1225 1
22 1369 1
22 1606 1
22 1683 1
23 128 1
23 239 1
23 419 1
23 467 1
23 628 1
23 818 1
23 910 1
23 1094 1
23 1226 1
23 1370 1
23 1607 1
23 1733 1
24 129 1
24 240 1
24 420 1
24 517 1
24 629 1
24 819 1
24 911 1
24 1095 1
24 1227 1
24 1371 1
24 1608 1
24 1636 1
25 130 1
25 241 1
25 421 1
25 567 1
25 630 1
25 820 1
25 912 1
25 1096 1
25 1228 1
25 1372 1
25 1609 1
25 1686 1
26 131 1
26 242 1
26 422 1
26 470 1
26 631 1
26 821 1
26 913 1
26 1097 1
26 1229 1
26 1373 1
26 1610 1
26 1736 1
27 132 1
27 243 1
27 423 1
27 520 1
27 632 1
27 822 1
27 914 1
27 1098 1
27 1230 1
27 1374 1
27 1611 1
27 1639 1
28 133 1
28 244 1
28 424 1
28 570 1
28 633 1
28 823 1
28 915 1
28 1099 1
28 1231 1
28 1375 1
28 1612 1
28 1689 1
29 134 1
29 245 1
29 425 1
29 473 1
29 634 1
29 824 1
29 916 1
29 1100 1
29 1232 1
29 1376 1
29 1613 1
29 1739 1
30 135 1
30 246 1
30 426 1
30 523 1
30 635 1
30 825 1
30 917 1
30 1101 1
30 1233 1
30 1377 1
30 1614 1
30 1642 1
31 136 1
31 247 1
31 427 1
31 573 1
31 636 1
31 826 1
31 918 1
31 1102 1
31 1234 1
31 1378 1
31 1615 1
31 1692 1
32 137 1
32 248 1
32 428 1
32 476 1
32 637 1
32 827 1
32 919 1
32 1103 1
32 1235 1
32 1379 1
32 1616 1
32 1742 1
33 138 1
33 249 1
33 429 1
33 526 1
33 638 1
33 828 1
33 920 1
33 1104 1
33 1236 1
33 1380 1
33 1617 1
33 1645 1
34 139 1
34 250 1
34 430 1
34 576 1
34 639 1
34 829 1
34 921 1
34 1105 1
34 1237 1
34 1381 1
34 1471 1
34 1695 1
35 140 1
35 251 1
35 431 1
35 479 1
35 640 1
35 830 1
35 922 1
35 1106 1
35 1238 1
35 1382 1
35 1472 1
35 1745 1
36 141 1
36 252 1
36 432 1
36 529 1
36 641 1
36 831 1
36 923 1
36 1107 1
36 1239 1
36 1383 1
36 1473 1
36 1648 1
37 142 1
37 253 1
37 433 1
37 579 1
37 642 1
37 832 1
37 924 1
37 1108 1
37 1240 1
37 1384 1
37 1474 1
37 1698 1
38 143 1
38 254 1
38 434 1
38 482 1
38 643 1
38 833 1
38 925 1
38 1109 1
38 1241 1
38 1385 1
38 1475 1
38 1748 1
39 144 1
39 255 1
39 435 1
39 532 1
39 644 1
39 834 1
39 926 1
39 1110 1
39 1242 1
39 1386 1
39 1476 1
39 1651 1
40 145 1
40 256 1
40 436 1
40 582 1
40 645 1
40 835 1
40 927 1
40 1111 1
40 1243 1
40 1387 1
40 1477 1
40 1701 1
41 146 1
41 257 1
41 437 1
41 485 1
41 646 1
41 836 1
41 928 1
41 1112 1
41 1244 1
41 1388 1
41 1478 1
41 1751 1
42 147 1
42 258 1
42 438 1
42 535 1
42 647 1
42 837 1
42 929 1
42 1113 1
42 1245 1
42 1389 1
42 1479 1
42 1654 1
43 1 1
43 259 1
43 439 1
43 585 1
43 648 1
43 838 1
43 930 1
43 1114 1
43 1246 1
43 1390 1
43 1480 1
43 1704 1
44 2 1
44 260 1
44 440 1
44 488 1
44 649 1
44 839 1
44 931 1
44 1115 1
44 1247 1
44 1391 1
44 1481 1
44 1754 1
45 3 1
45 261 1
45 441 1
45 538 1
45 650 1
45 840 1
45 932 1
45 1116 1
45 1248 1
45 1392 1
45 1482 1
45 1657 1
46 4 1
46 262 1
46 295 1
46 588 1
46 651 1
46 841 1
46 933 1
46 1117 1
46 1249 1
46 1393 1
46 1483 1
46 1707 1
47 5 1
47 263 1
47 296 1
47 491 1
47 652 1
47 842 1
47 934 1
47 1118 1
47 1250 1
47 1394 1
47 1484 1
47 1757 1
48 6 1
48 264 1
48 297 1
48 541 1
48 653 1
48 843 1
48 935 1
48 1119 1
48 1251 1
48 1395 1
48 1485 1
48 1660 1
49 7 1
49 265 1
49 298 1
49 444 1
49 654 1
49 844 1
49 936 1
49 1120 1
49 1252 1
49 1396 1
49 1486 1
49 1710 1
50 8 1
50 266 1
50 299 1
50 494 1
50 655 1
50 845 1
50 937 1
50 1121 1
50 1253 1
50 1397 1
50 1487 1
50 1760 1
51 9 1
51 267 1
51 300 1
51 544 1
51 656 1
51 846 1
51 938 1
51 1122 1
51 1254 1
51 1398 1
51 1488 1
51 1663 1
52 10 1
52 268 1
52 301 1
52 447 1
52 657 1
52 847 1
52 939 1
52 1123 1
52 1255 1
52 1399 1
52 1489 1
52 1713 1
53 11 1
53 269 1
53 302 1
53 497 1
53 658 1
53 848 1
53 940 1
53 1124 1
53 1256 1
53 1400 1
53 1490 1
53 1763 1
54 12 1
54 270 1
54 303 1
54 547 1
54 659 1
54 849 1
54 941 1
54 1125 1
54 1257 1
54 1401 1
54 1491 1
54 1666 1
55 13 1
55 271 1
55 304 1
55 450 1
55 660 1
55 850 1
55 942 1
55 1126 1
55 1258 1
55 1402 1
55 1492 1
55 1716 1
56 14 1
56 272 1
56 305 1
56 500 1
56 661 1
56 851 1
56 943 1
56 1127 1
56 1259 1
56 1403 1
56 1493 1
56 1619 1
57 15 1
57 273 1
57 306 1
57 550 1
57 662 1
57 852 1
57 944 1
57 1128 1
57 1260 1
57 1404 1
57 1494 1
57 1669 1
58 16 1
58 274 1
58 307 1
58 453 1
58 663 1
58 853 1
58 945 1
58 1129 1
58 1261 1
58 1405 1
58 1495 1
58 1719 1
59 17 1
59 275 1
59 308 1
59 503 1
59 664 1
59 854 1
59 946 1
59 1130 1
59 1262 1
59 1406 1
59 1496 1
59 1622 1
60 18 1
60 276 1
60 309 1
60 553 1
60 665 1
60 855 1
60 947 1
60 1131 1
60 1263 1
60 1407 1
60 1497 1
60 1672 1
61 19 1
61 277 1
61 310 1
61 456 1
61 666 1
61 856 1
61 948 1
61 1132 1
61 1264 1
61 1408 1
61 1498 1
61 1722 1
62 20 1
62 278 1
62 311 1
62 506 1
62 667 1
62 857 1
62 949 1
62 1133 1
62 1265 1
62 1409 1
62 1499 1
62 1625 1
63 21 1
63 279 1
63 312 1
63 556 1
63 668 1
63 858 1
63 950 1
63 1134 1
63 1266 1
63 1410 1
63 1500 1
63 1675 1
64 22 1
64 280 1
64 313 1
64 459 1
64 669 1
64 859 1
64 951 1
64 1135 1
64 1267 1
64 1411 1
64 1501 1
64 1725 1
65 23 1
65 281 1
65 314 1
65 509 1
65 670 1
65 860 1
65 952 1
65 1136 1
65 1268 1
65 1412 1
65 1502 1
65 1628 1
66 24 1
66 282 1
66 315 1
66 559 1
66 671 1
66 861 1
66 953 1
66 1137 1
66 1269 1
66 1413 1
66 1503 1
66 1678 1
67 25 1
67 283 1
67 316 1
67 462 1
67 672 1
67 862 1
67 954 1
67 1138 1
67 1270 1
67 1414 1
67 1504 1
67 1728 1
68 26 1
68 284 1
68 317 1
68 512 1
68 673 1
68 863 1
68 955 1
68 1139 1
68 1271 1
68 1415 1
68 1505 1
68 1631 1
69 27 1
69 285 1
69 318 1
69 562 1
69 674 1
69 864 1
69 956 1
69 1140 1
69 1272 1
69 1416 1
69 1506 1
69 1681 1
70 28 1
70 286 1
70 319 1
70 465 1
70 675 1
70 865 1
70 957 1
70 1141 1
70 1273 1
70 1417 1
70 1507 1
70 1731 1
71 29 1
71 287 1
71 320 1
71 515 1
71 676 1
71 866 1
71 958 1
71 1142 1
71 1274 1
71 1418 1
71 1508 1
71 1634 1
72 30 1
72 288 1
72 321 1
72 565 1
72 677 1
72 867 1
72 959 1
72 1143 1
72 1275 1
72 1419 1
72 1509 1
72 1684 1
73 31 1
73 289 1
73 322 1
73 468 1
73 678 1
73 868 1
73 960 1
73 1144 1
73 1276 1
73 1420 1
73 1510 1
73 1734 1
74 32 1
74 290 1
74 323 1
74 518 1
74 679 1
74 869 1
74 961 1
74 1145 1
74 1277 1
74 1421 1
74 1511 1
74 1637 1
75 33 1
75 291 1
75 324 1
75 568 1
75 680 1
75 870 1
75 962 1
75 1146 1
75 1278 1
75 1422 1
75 1512 1
75 1687 1
76 34 1
76 292 1
76 325 1
76 471 1
76 681 1
76 871 1
76 963 1
76 1147 1
76 1279 1
76 1423 1
76 1513 1
76 1737 1
77 35 1
77 293 1
77 326 1
77 521 1
77 682 1
77 872 1
77 964 1
77 1148 1
77 1280 1
77 1424 1
77 1514 1
77 1640 1
78 36 1
78 294 1
78 327 1
78 571 1
78 683 1
78 873 1
78 965 1
78 1149 1
78 1281 1
78 1425 1
78 1515 1
78 1690 1
79 37 1
79 148 1
79 328 1
79 474 1
79 684 1
79 874 1
79 966 1
79 1150 1
79 1282 1
79 1426 1
79 1516 1
79 1740 1
80 38 1
80 149 1
80 329 1
80 524 1
80 685 1
80 875 1
80 967 1
80 1151 1
80 1283 1
80 1427 1
80 1517 1
80 1643 1
81 39 1
81 150 1
81 330 1
81 574 1
81 686 1
81 876 1
81 968 1
81 1152 1
81 1284 1
81 1428 1
81 1518 1
81 1693 1
82 40 1
82 151 1
82 331 1
82 477 1
82 687 1
82 877 1
82 969 1
82 1153 1
82 1285 1
82 1429 1
82 1519 1
82 1743 1
83 41 1
83 152 1
83 332 1
83 527 1
83 688 1
83 878 1
83 970 1
83 1154 1
83 1286 1
83 1430 1
83 1520 1
83 1646 1
84 42 1
84 153 1
84 333 1
84 577 1
84 689 1
84 879 1
84 971 1
84 1155 1
84 1287 1
84 1431 1
84 1521 1
84 1696 1
85 43 1
85 154 1
85 334 1
85 480 1
85 690 1
85 880 1
85 972 1
85 1156 1
85 1288 1
85 1432 1
85 1522 1
85 1746 1
86 44 1
86 155 1
86 335 1
86 530 1
86 691 1
86 881 1
86 973 1
86 1157 1
86 1289 1
86 1433 1
86 1523 1
86 1649 1
87 45 1
87 156 1
87 336 1
87 580 1
87 692 1
87 882 1
87 974 1
87 1158 1
87 1290 1
87 1434 1
87 1524 1
87 1699 1
88 46 1
88 157 1
88 337 1
88 483 1
88 693 1
88 736 1
88 975 1
88 1159 1
88 1291 1
88 1435 1
88 1525 1
88 1749 1
89 47 1
89 158 1
89 338 1
89 533 1
89 694 1
89 737 1
89 976 1
89 1160 1
89 1292 1
89 1436 1
89 1526 1
89 1652 1
90 48 1
90 159 1
90 339 1
90 583 1
90 695 1
90 738 1
90 977 1
90 1161 1
90 1293 1
90 1437 1
90 1527 1
90 1702 1
91 49 1
91 160 1
91 340 1
91 486 1
91 696 1
91 739 1
91 978 1
91 1162 1
91 1294 1
91 1438 1
91 1528 1
91 1752 1
92 50 1
92 161 1
92 341 1
92 536 1
92 697 1
92 740 1
92 979 1
92 1163 1
92 1295 1
92 1439 1
92 1529 1
92 1655 1
93 51 1
93 162 1
93 342 1
93 586 1
93 698 1
93 741 1
93 980 1
93 1164 1
93 1296 1
93 1440 1
93 1530 1
93 1705 1
94 52 1
94 163 1
94 343 1
94 489 1
94 699 1
94 742 1
94 981 1
94 1165 1
94 1297 1
94 1441 1
94 1531 1
94 1755 1
95 53 1
95 164 1
95 344 1
95 539 1
95 700 1
95 743 1
95 982 1
95 1166 1
95 1298 1
95 1442 1
95 1532 1
95 1658 1
96 54 1
96 165 1
96 345 1
96 442 1
96 701 1
96 744 1
96 983 1
96 1167 1
96 1299 1
96 1443 1
96 1533 1
96 1708 1
97 55 1
97 166 1
97 346 1
97 492 1
97 702 1
97 745 1
97 984 1
97 1168 1
97 1300 1
97 1444 1
97 1534 1
97 1758 1
98 56 1
98 167 1
98 347 1
98 542 1
98 703 1
98 746 1
98 985 1
98 1169 1
98 1301 1
98 1445 1
98 1535 1
98 1661 1
99 57 1
99 168 1
99 348 1
99 445 1
99 704 1
99 747 1
99 986 1
99 1170 1
99 1302 1
99 1446 1
99 1536 1
99 1711 1
100 58 1
100 169 1
100 349 1
100 495 1
100 705 1
100 748 1
100 987 1
100 1171 1
100 1303 1
100 1447 1
100 1537 1
100 1761 1
101 59 1
101 170 1
101 350 1
101 545 1
101 706 1
101 749 1
101 988 1
101 1172 1
101 1304 1
101 1448 1
101 1538 1
101 1664 1
102 60 1
102 171 1
102 351 1
102 448 1
102 707 1
102 750 1
102 989 1
102 1173 1
102 1305 1
102 1449 1
102 1539 1
102 1714 1
103 61 1
103 172 1
103 352 1
103 498 1
103 708 1
103 751 1
103 990 1
103 1174 1
103 1306 1
103 1450 1
103 1540 1
103 1764 1
104 62 1
104 173 1
104 353 1
104 548 1
104 709 1
104 752 1
104 991 1
104 1175 1
104 1307 1
104 1451 1
104 1541 1
104 1667 1
105 63 1
105 174 1
105 354 1
105 451 1
105 710 1
105 753 1
105 992 1
105 1176 1
105 1308 1
105 1452 1
105 1542 1
105 1717 1
106 64 1
106 175 1
106 355 1
106 501 1
106 711 1
106 754 1
106 993 1
106 1030 1
106 1309 1
106 1453 1
106 1543 1
106 1620 1
107 65 1
107 176 1
107 356 1
107 551 1
107 712 1
107 755 1
107 994 1
107 1031 1
107 1310 1
107 1454 1
107 1544 1
107 1670 1
108 66 1
108 177 1
108 357 1
108 454 1
108 713 1
108 756 1
108 995 1
108 1032 1
108 1311 1
108 1455 1
108 1545 1
108 1720 1
109 67 1
109 178 1
109 358 1
109 504 1
109 714 1
109 757 1
109 996 1
109 1033 1
109 1312 1
109 1456 1
109 1546 1
109 1623 1
110 68 1
110 179 1
110 359 1
110 554 1
110 715 1
110 758 1
110 997 1
110 1034 1
110 1313 1
110 1457 1
110 1547 1
110 1673 1
111 69 1
111 180 1
111 360 1
111 457 1
111 716 1
111 759 1
111 998 1
111 1035 1
111 1314 1
111 1458 1
111 1548 1
111 1723 1
112 70 1
112 181 1
112 361 1
112 507 1
112 717 1
112 760 1
112 999 1
112 1036 1
112 1315 1
112 1459 1
112 1549 1
112 1626 1
113 71 1
113 182 1
113 362 1
113 557 1
113 718 1
113 761 1
113 1000 1
113 1037 1
113 1316 1
113 1460 1
113 1550 1
113 1676 1
114 72 1
114 183 1
114 363 1
114 460 1
114 719 1
114 762 1
114 1001 1
114 1038 1
114 1317 1
114 1461 1
114 1551 1
114 1726 1
115 73 1
115 184 1
115 364 1
115 510 1
115 720 1
115 763 1
115 1002 1
115 1039 1
115 1318 1
115 1462 1
115 1552 1
115 1629 1
116 74 1
116 185 1
116 365 1
116 560 1
116 721 1
116 764 1
116 1003 1
116 1040 1
116 1319 1
116 1463 1
116 1553 1
116 1679 1
117 75 1
117 186 1
117 366 1
117 463 1
117 722 1
117 765 1
117 1004 1
117 1041 1
117 1320 1
117 1464 1
117 1554 1
117 1729 1
118 76 1
118 187 1
118 367 1
118 513 1
118 723 1
118 766 1
118 1005 1
118 1042 1
118 1321 1
118 1465 1
118 1555 1
118 1632 1
119 77 1
119 188 1
119 368 1
119 563 1
119 724 1
119 767 1
119 1006 1
119 1043 1
119 1322 1
119 1466 1
119 1556 1
119 1682 1
120 78 1
120 189 1
120 369 1
120 466 1
120 725 1
120 768 1
120 1007 1
120 1044 1
120 1323 1
120 1467 1
120 1557 1
120 1732 1
121 79 1
121 190 1
121 370 1
121 516 1
121 726 1
121 769 1
121 1008 1
121 1045 1
121 1177 1
121 1468 1
121 1558 1
121 1635 1
122 80 1
122 191 1
122 371 1
122 566 1
122 727 1
122 770 1
122 1009 1
122 1046 1
122 1178 1
122 1469 1
122 1559 1
122 1685 1
123 81 1
123 192 1
123 372 1
123 469 1
123 728 1
123 771 1
123 1010 1
123 1047 1
123 1179 1
123 1470 1
123 1560 1
123 1735 1
124 82 1
124 193 1
124 373 1
124 519 1
124 729 1
124 772 1
124 1011 1
124 1048 1
124 1180 1
124 1324 1
124 1561 1
124 1638 1
125 83 1
125 194 1
125 374 1
125 569 1
125 730 1
125 773 1
125 1012 1
125 1049 1
125 1181 1
125 1325 1
125 1562 1
125 1688 1
126 84 1
126 195 1
126 375 1
126 472 1
126 731 1
126 774 1
126 1013 1
126 1050 1
126 1182 1
126 1326 1
126 1563 1
126 1738 1
127 85 1
127 196 1
127 376 1
127 522 1
127 732 1
127 775 1
127 1014 1
127 1051 1
127 1183 1
127 1327 1
127 1564 1
127 1641 1
128 86 1
128 197 1
128 377 1
128 572 1
128 733 1
128 776 1
128 1015 1
128 1052 1
128 1184 1
128 1328 1
128 1565 1
128 1691 1
129 87 1
129 198 1
129 378 1
129 475 1
129 734 1
129 777 1
129 1016 1
129 1053 1
129 1185 1
129 1329 1
129 1566 1
129 1741 1
130 88 1
130 199 1
130 379 1
130 525 1
130 735 1
130 778 1
130 1017 1
130 1054 1
130 1186 1
130 1330 1
130 1567 1
130 1644 1
131 89 1
131 200 1
131 380 1
131 575 1
131 589 1
131 779 1
131 1018 1
131 1055 1
131 1187 1
131 1331 1
131 1568 1
131 1694 1
132 90 1
132 201 1
132 381 1
132 478 1
132 590 1
132 780 1
132 1019 1
132 1056 1
132 1188 1
132 1332 1
132 1569 1
132 1744 1
133 91 1
133 202 1
133 382 1
133 528 1
133 591 1
133 781 1
133 1020 1
133 1057 1
133 1189 1
133 1333 1
133 1570 1
133 1647 1
134 92 1
134 203 1
134 383 1
134 578 1
134 592 1
134 782 1
134 1021 1
134 1058 1
134 1190 1
134 1334 1
134 1571 1
134 1697 1
135 93 1
135 204 1
135 384 1
135 481 1
135 593 1
135 783 1
135 1022 1
135 1059 1
135 1191 1
135 1335 1
135 1572 1
135 1747 1
136 94 1
136 205 1
136 385 1
136 531 1
136 594 1
136 784 1
136 1023 1
136 1060 1
136 1192 1
136 1336 1
136 1573 1
136 1650 1
137 95 1
137 206 1
137 386 1
137 581 1
137 595 1
137 785 1
137 1024 1
137 1061 1
137 1193 1
137 1337 1
137 1574 1
137 1700 1
138 96 1
138 207 1
138 387 1
138 484 1
138 596 1
138 786 1
138 1025 1
138 1062 1
138 1194 1
138 1338 1
138 1575 1
138 1750 1
139 97 1
139 208 1
139 388 1
139 534 1
139 597 1
139 787 1
139 1026 1
139 1063 1
139 1195 1
139 1339 1
139 1576 1
139 1653 1
140 98 1
140 209 1
140 389 1
140 584 1
140 598 1
140 788 1
140 1027 1
140 1064 1
140 1196 1
140 1340 1
140 1577 1
140 1703 1
141 99 1
141 210 1
141 390 1
141 487 1
141 599 1
141 789 1
141 1028 1
141 1065 1
141 1197 1
141 1341 1
141 1578 1
141 1753 1
142 100 1
142 211 1
142 391 1
142 537 1
142 600 1
142 790 1
142 1029 1
142 1066 1
142 1198 1
142 1342 1
142 1579 1
142 1656 1
143 101 1
143 212 1
143 392 1
143 587 1
143 601 1
143 791 1
143 883 1
143 1067 1
143 1199 1
143 1343 1
143 1580 1
143 1706 1
144 102 1
144 213 1
144 393 1
144 490 1
144 602 1
144 792 1
144 884 1
144 1068 1
144 1200 1
144 1344 1
144 1581 1
144 1756 1
145 103 1
145 214 1
145 394 1
145 540 1
145 603 1
145 793 1
145 885 1
145 1069 1
145 1201 1
145 1345 1
145 1582 1
145 1659 1
146 104 1
146 215 1
146 395 1
146 443 1
146 604 1
146 794 1
146 886 1
146 1070 1
146 1202 1
146 1346 1
146 1583 1
146 1709 1
147 105 1
147 216 1
147 396 1
147 493 1
147 605 1
147 795 1
147 887 1
147 1071 1
147 1203 1
147 1347 1
147 1584 1
147 1759 1
148 61 1
148 253 1
148 364 1
148 544 1
148 690 1
148 753 1
148 927 1
148 1035 1
148 1219 1
148 1351 1
148 1495 1
148 1732 1
149 62 1
149 254 1
149 365 1
149 545 1
149 593 1
149 754 1
149 977 1
149 1036 1
149 1220 1
149 1352 1
149 1496 1
149 1733 1
150 63 1
150 255 1
150 366 1
150 546 1
150 643 1
150 755 1
150 1027 1
150 1037 1
150 1221 1
150 1353 1
150 1497 1
150 1734 1
151 64 1
151 256 1
151 367 1
151 547 1
151 693 1
151 756 1
151 930 1
151 1038 1
151 1222 1
151 1354 1
151 1498 1
151 1735 1
152 65 1
152 257 1
152 368 1
152 548 1
152 596 1
152 757 1
152 980 1
152 1039 1
152 1223 1
152 1355 1
152 1499 1
152 1736 1
153 66 1
153 258 1
153 369 1
153 549 1
153 646 1
153 758 1
153 883 1
153 1040 1
153 1224 1
153 1356 1
153 1500 1
153 1737 1
154 67 1
154 259 1
154 370 1
154 550 1
154 696 1
154 759 1
154 933 1
154 1041 1
154 1225 1
154 1357 1
154 1501 1
154 1738 1
155 68 1
155 260 1
155 371 1
155 551 1
155 599 1
155 760 1
155 983 1
155 1042 1
155 1226 1
155 1358 1
155 1502 1
155 1739 1
156 69 1
156 261 1
156 372 1
156 552 1
156 649 1
156 761 1
156 886 1
156 1043 1
156 1227 1
156 1359 1
156 1503 1
156 1740 1
157 70 1
157 262 1
157 373 1
157 553 1
157 699 1
157 762 1
157 936 1
157 1044 1
157 1228 1
157 1360 1
157 1504 1
157 1741 1
158 71 1
158 263 1
158 374 1
158 554 1
158 602 1
158 763 1
158 986 1
158 1045 1
158 1229 1
158 1361 1
158 1505 1
158 1742 1
159 72 1
159 264 1
159 375 1
159 555 1
159 652 1
159 764 1
159 889 1
159 1046 1
159 1230 1
159 1362 1
159 1506 1
159 1743 1
160 73 1
160 265 1
160 376 1
160 556 1
160 702 1
160 765 1
160 939 1
160 1047 1
160 1231 1
160 1363 1
160 1507 1
160 1744 1
161 74 1
161 266 1
161 377 1
161 557 1
161 605 1
161 766 1
161 989 1
161 1048 1
161 1232 1
161 1364 1
161 1508 1
161 1745 1
162 75 1
162 267 1
162 378 1
162 558 1
162 655 1
162 767 1
162 892 1
162 1049 1
162 1233 1
162 1365 1
162 1509 1
162 1746 1
163 76 1
163 268 1
163 379 1
163 559 1
163 705 1
163 768 1
163 942 1
163 1050 1
163 1234 1
163 1366 1
163 1510 1
163 1747 1
164 77 1
164 269 1
164 380 1
164 560 1
164 608 1
164 769 1
164 992 1
164 1051 1
164 1235 1
164 1367 1
164 1511 1
164 1748 1
165 78 1
165 270 1
165 381 1
165 561 1
165 658 1
165 770 1
165 895 1
165 1052 1
165 1236 1
165 1368 1
165 1512 1
165 1749 1
166 79 1
166 271 1
166 382 1
166 562 1
166 708 1
166 771 1
166 945 1
166 1053 1
166 1237 1
166 1369 1
166 1513 1
166 1750 1
167 80 1
167 272 1
167 383 1
167 563 1
167 611 1
167 772 1
167 995 1
167 1054 1
167 1238 1
167 1370 1
167 1514 1
167 1751 1
168 81 1
168 273 1
168 384 1
168 564 1
168 661 1
168 773 1
168 898 1
168 1055 1
168 1239 1
168 1371 1
168 1515 1
168 1752 1
169 82 1
169 274 1
169 385 1
169 565 1
169 711 1
169 774 1
169 948 1
169 1056 1
169 1240 1
169 1372 1
169 1516 1
169 1753 1
170 83 1
170 275 1
170 386 1
170 566 1
170 614 1
170 775 1
170 998 1
170 1057 1
170 1241 1
170 1373 1
170 1517 1
170 1754 1
171 84 1
171 276 1
171 387 1
171 567 1
171 664 1
171 776 1
171 901 1
171 1058 1
171 1242 1
171 1374 1
171 1518 1
171 1755 1
172 85 1
172 277 1
172 388 1
172 568 1
172 714 1
172 777 1
172 951 1
172 1059 1
172 1243 1
172 1375 1
172 1519 1
172 1756 1
173 86 1
173 278 1
173 389 1
173 569 1
173 617 1
173 778 1
173 1001 1
173 1060 1
173 1244 1
173 1376 1
173 1520 1
173 1757 1
174 87 1
174 279 1
174 390 1
174 570 1
174 667 1
174 779 1
174 904 1
174 1061 1
174 1245 1
174 1377 1
174 1521 1
174 1758 1
175 88 1
175 280 1
175 391 1
175 571 1
175 717 1
175 780 1
175 954 1
175 1062 1
175 1246 1
175 1378 1
175 1522 1
175 1759 1
176 89 1
176 281 1
176 392 1
176 572 1
176 620 1
176 781 1
176 1004 1
176 1063 1
176 1247 1
176 1379 1
176 1523 1
176 1760 1
177 90 1
177 282 1
177 393 1
177 573 1
177 670 1
177 782 1
177 907 1
177 1064 1
177 1248 1
177 1380 1
177 1524 1
177 1761 1
178 91 1
178 283 1
178 394 1
178 574 1
178 720 1
178 783 1
178 957 1
178 1065 1
178 1249 1
178 1381 1
178 1525 1
178 1762 1
179 92 1
179 284 1
179 395 1
179 575 1
179 623 1
179 784 1
179 1007 1
179 1066 1
179 1250 1
179 1382 1
179 1526 1
179 1763 1
180 93 1
180 285 1
180 396 1
180 576 1
180 673 1
180 785 1
180 910 1
180 1067 1
180 1251 1
180 1383 1
180 1527 1
180 1764 1
181 94 1
181 286 1
181 397 1
181 577 1
181 723 1
181 786 1
181 960 1
181 1068 1
181 1252 1
181 1384 1
181 1528 1
181 1618 1
182 95 1
182 287 1
182 398 1
182 578 1
182 626 1
182 787 1
182 1010 1
182 1069 1
182 1253 1
182 1385 1
182 1529 1
182 1619 1
183 96 1
183 288 1
183 399 1
183 579 1
183 676 1
183 788 1
183 913 1
183 1070 1
183 1254 1
183 1386 1
183 1530 1
183 1620 1
184 97 1
184 289 1
184 400 1
184 580 1
184 726 1
184 789 1
184 963 1
184 1071 1
184 1255 1
184 1387 1
184 1531 1
184 1621 1
185 98 1
185 290 1
185 401 1
185 581 1
185 629 1
185 790 1
185 1013 1
185 1072 1
185 1256 1
185 1388 1
185 1532 1
185 1622 1
186 99 1
186 291 1
186 402 1
186 582 1
186 679 1
186 791 1
186 916 1
186 1073 1
186 1257 1
186 1389 1
186 1533 1
186 1623 1
187 100 1
187 292 1
187 403 1
187 583 1
187 729 1
187 792 1
187 966 1
187 1074 1
187 1258 1
187 1390 1
187 1534 1
187 1624 1
188 101 1
188 293 1
188 404 1
188 584 1
188 632 1
188 793 1
188 1016 1
188 1075 1
188 1259 1
188 1391 1
188 1535 1
188 1625 1
189 102 1
189 294 1
189 405 1
189 585 1
189 682 1
189 794 1
189 919 1
189 1076 1
189 1260 1
189 1392 1
189 1536 1
189 1626 1
190 103 1
190 148 1
190 406 1
190 586 1
190 732 1
190 795 1
190 969 1
190 1077 1
190 1261 1
190 1393 1
190 1537 1
190 1627 1
191 104 1
191 149 1
191 407 1
191 587 1
191 635 1
191 796 1
191 1019 1
191 1078 1
191 1262 1
191 1394 1
191 1538 1
191 1628 1
192 105 1
192 150 1
192 408 1
192 588 1
192 685 1
192 797 1
192 922 1
192 1079 1
192 1263 1
192 1395 1
192 1539 1
192 1629 1
193 106 1
193 151 1
193 409 1
193 442 1
193 735 1
193 798 1
193 972 1
193 1080 1
193 1264 1
193 1396 1
193 1540 1
193 1630 1
194 107 1
194 152 1
194 410 1
194 443 1
194 638 1
194 799 1
194 1022 1
194 1081 1
194 1265 1
194 1397 1
194 1541 1
194 1631 1
195 108 1
195 153 1
195 411 1
195 444 1
195 688 1
195 800 1
195 925 1
195 1082 1
195 1266 1
195 1398 1
195 1542 1
195 1632 1
196 109 1
196 154 1
196 412 1
196 445 1
196 591 1
196 801 1
196 975 1
196 1083 1
196 1267 1
196 1399 1
196 1543 1
196 1633 1
197 110 1
197 155 1
197 413 1
197 446 1
197 641 1
197 802 1
197 1025 1
197 1084 1
197 1268 1
197 1400 1
197 1544 1
197 1634 1
198 111 1
198 156 1
198 414 1
198 447 1
198 691 1
198 803 1
198 928 1
198 1085 1
198 1269 1
198 1401 1
198 1545 1
198 1635 1
199 112 1
199 157 1
199 415 1
199 448 1
199 594 1
199 804 1
199 978 1
199 1086 1
199 1270 1
199 1402 1
199 1546 1
199 1636 1
200 113 1
200 158 1
200 416 1
200 449 1
200 644 1
200 805 1
200 1028 1
200 1087 1
200 1271 1
200 1403 1
200 1547 1
200 1637 1
201 114 1
201 159 1
201 417 1
201 450 1
201 694 1
201 806 1
201 931 1
201 1088 1
201 1272 1
201 1404 1
201 1548 1
201 1638 1
202 115 1
202 160 1
202 418 1
202 451 1
202 597 1
202 807 1
202 981 1
202 1089 1
202 1273 1
202 1405 1
202 1549 1
202 1639 1
203 116 1
203 161 1
203 419 1
203 452 1
203 647 1
203 808 1
203 884 1
203 1090 1
203 1274 1
203 1406 1
203 1550 1
203 1640 1
204 117 1
204 162 1
204 420 1
204 453 1
204 697 1
204 809 1
204 934 1
204 1091 1
204 1275 1
204 1407 1
204 1551 1
204 1641 1
205 118 1
205 163 1
205 421 1
205 454 1
205 600 1
205 810 1
205 984 1
205 1092 1
205 1276 1
205 1408 1
205 1552 1
205 1642 1
206 119 1
206 164 1
206 422 1
206 455 1
206 650 1
206 811 1
206 887 1
206 1093 1
206 1277 1
206 1409 1
206 1553 1
206 1643 1
207 120 1
207 165 1
207 423 1
207 456 1
207 700 1
207 812 1
207 937 1
207 1094 1
207 1278 1
207 1410 1
207 1554 1
207 1644 1
208 121 1
208 166 1
208 424 1
208 457 1
208 603 1
208 813 1
208 987 1
208 1095 1
208 1279 1
208 1411 1
208 1555 1
208 1645 1
209 122 1
209 167 1
209 425 1
209 458 1
209 653 1
209 814 1
209 890 1
209 1096 1
209 1280 1
209 1412 1
209 1556 1
209 1646 1
210 123 1
210 168 1
210 426 1
210 459 1
210 703 1
210 815 1
210 940 1
210 1097 1
210 1281 1
210 1413 1
210 1557 1
210 1647 1
211 124 1
211 169 1
211 427 1
211 460 1
211 606 1
211 816 1
211 990 1
211 1098 1
211 1282 1
211 1414 1
211 1558 1
211 1648 1
212 125 1
212 170 1
212 428 1
212 461 1
212 656 1
212 817 1
212 893 1
212 1099 1
212 1283 1
212 1415 1
212 1559 1
212 1649 1
213 126 1
213 171 1
213 429 1
213 462 1
213 706 1
213 818 1
213 943 1
213 1100 1
213 1284 1
213 1416 1
213 1560 1
213 1650 1
214 127 1
214 172 1
214 430 1
214 463 1
214 609 1
214 819 1
214 993 1
214 1101 1
214 1285 1
214 1417 1
214 1561 1
214 1651 1
215 128 1
215 173 1
215 431 1
215 464 1
215 659 1
215 820 1
215 896 1
215 1102 1
215 1286 1
215 1418 1
215 1562 1
215 1652 1
216 129 1
216 174 1
216 432 1
216 465 1
216 709 1
216 821 1
216 946 1
216 1103 1
216 1287 1
216 1419 1
216 1563 1
216 1653 1
217 130 1
217 175 1
217 433 1
217 466 1
217 612 1
217 822 1
217 996 1
217 1104 1
217 1288 1
217 1420 1
217 1564 1
217 1654 1
218 131 1
218 176 1
218 434 1
218 467 1
218 662 1
218 823 1
218 899 1
218 1105 1
218 1289 1
218 1421 1
218 1565 1
218 1655 1
219 132 1
219 177 1
219 435 1
219 468 1
219 712 1
219 824 1
219 949 1
219 1106 1
219 1290 1
219 1422 1
219 1566 1
219 1656 1
220 133 1
220 178 1
220 436 1
220 469 1
220 615 1
220 825 1
220 999 1
220 1107 1
220 1291 1
220 1423 1
220 1567 1
220 1657 1
221 134 1
221 179 1
221 437 1
221 470 1
221 665 1
221 826 1
221 902 1
221 1108 1
221 1292 1
221 1424 1
221 1568 1
221 1658 1
222 135 1
222 180 1
222 438 1
222 471 1
222 715 1
222 827 1
222 952 1
222 1109 1
222 1293 1
222 1425 1
222 1569 1
222 1659 1
223 136 1
223 181 1
223 439 1
223 472 1
223 618 1
223 828 1
223 1002 1
223 1110 1
223 1294 1
223 1426 1
223 1570 1
223 1660 1
224 137 1
224 182 1
224 440 1
224 473 1
224 668 1
224 829 1
224 905 1
224 1111 1
224 1295 1
224 1427 1
224 1571 1
224 1661 1
225 138 1
225 183 1
225 441 1
225 474 1
225 718 1
225 830 1
225 955 1
225 1112 1
225 1296 1
225 1428 1
225 1572 1
225 1662 1
226 139 1
226 184 1
226 295 1
226 475 1
226 621 1
226 831 1
226 1005 1
226 1113 1
226 1297 1
226 1429 1
226 1573 1
226 1663 1
227 140 1
227 185 1
227 296 1
227 476 1
227 671 1
227 832 1
227 908 1
227 1114 1
227 1298 1
227 1430 1
227 1574 1
227 1664 1
228 141 1
228 186 1
228 297 1
228 477 1
228 721 1
228 833 1
228 958 1
228 1115 1
228 1299 1
228 1431 1
228 1575 1
228 1665 1
229 142 1
229 187 1
229 298 1
229 478 1
229 624 1
229 834 1
229 1008 1
229 1116 1
229 1300 1
229 1432 1
229 1576 1
229 1666 1
230 143 1
230 188 1
230 299 1
230 479 1
230 674 1
230 835 1
230 911 1
230 1117 1
230 1301 1
230 1433 1
230 1577 1
230 1667 1
231 144 1
231 189 1
231 300 1
231 480 1
231 724 1
231 836 1
231 961 1
231 1118 1
231 1302 1
231 1434 1
231 1578 1
231 1668 1
232 145 1
232 190 1
232 301 1
232 481 1
232 627 1
232 837 1
232 1011 1
232 1119 1
232 1303 1
232 1435 1
232 1579 1
232 1669 1
233 146 1
233 191 1
233 302 1
233 482 1
233 677 1
233 838 1
233 914 1
233 1120 1
233 1304 1
233 1436 1
233 1580 1
233 1670 1
234 147 1
234 192 1
234 303 1
234 483 1
234 727 1
234 839 1
234 964 1
234 1121 1
234 1305 1
234 1437 1
234 1581 1
234 1671 1
235 1 1
235 193 1
235 304 1
235 484 1
235 630 1
235 840 1
235 1014 1
235 1122 1
235 1306 1
235 1438 1
235 1582 1
235 1672 1
236 2 1
236 194 1
236 305 1
236 485 1
236 680 1
236 841 1
236 917 1
236 1123 1
236 1307 1
236 1439 1
236 1583 1
236 1673 1
237 3 1
237 195 1
237 306 1
237 486 1
237 730 1
237 842 1
237 967 1
237 1124 1
237 1308 1
237 1440 1
237 1584 1
237 1674 1
238 4 1
238 196 1
238 307 1
238 487 1
238 633 1
238 843 1
238 1017 1
238 1125 1
238 1309 1
238 1441 1
238 1585 1
238 1675 1
239 5 1
239 197 1
239 308 1
239 488 1
239 683 1
239 844 1
239 920 1
239 1126 1
239 1310 1
239 1442 1
239 1586 1
239 1676 1
240 6 1
240 198 1
240 309 1
240 489 1
240 733 1
240 845 1
240 970 1
240 1127 1
240 1311 1
240 1443 1
240 1587 1
240 1677 1
241 7 1
241 199 1
241 310 1
241 490 1
241 636 1
241 846 1
241 1020 1
241 1128 1
241 1312 1
241 1444 1
241 1588 1
241 1678 1
242 8 1
242 200 1
242 311 1
242 491 1
242 686 1
242 847 1
242 923 1
242 1129 1
242 1313 1
242 1445 1
242 1589 1
242 1679 1
243 9 1
243 201 1
243 312 1
243 492 1
243 589 1
243 848 1
243 973 1
243 1130 1
243 1314 1
243 1446 1
243 1590 1
243 1680 1
244 10 1
244 202 1
244 313 1
244 493 1
244 639 1
244 849 1
244 1023 1
244 1131 1
244 1315 1
244 1447 1
244 1591 1
244 1681 1
245 11 1
245 203 1
245 314 1
245 494 1
245 689 1
245 850 1
245 926 1
245 1132 1
245 1316 1
245 1448 1
245 1592 1
245 1682 1
246 12 1
246 204 1
246 315 1
246 495 1
246 592 1
246 851 1
246 976 1
246 1133 1
246 1317 1
246 1449 1
246 1593 1
246 1683 1
247 13 1
247 205 1
247 316 1
247 496 1
247 642 1
247 852 1
247 1026 1
247 1134 1
247 1318 1
247 1450 1
247 1594 1
247 1684 1
248 14 1
248 206 1
248 317 1
248 497 1
248 692 1
248 853 1
248 929 1
248 1135 1
248 1319 1
248 1451 1
248 1595 1
248 1685 1
249 15 1
249 207 1
249 318 1
249 498 1
249 595 1
249 854 1
249 979 1
249 1136 1
249 1320 1
249 1452 1
249 1596 1
249 1686 1
250 16 1
250 208 1
250 319 1
250 499 1
250 645 1
250 855 1
250 1029 1
250 1137 1
250 1321 1
250 1453 1
250 1597 1
250 1687 1
251 17 1
251 209 1
251 320 1
251 500 1
251 695 1
251 856 1
251 932 1
251 1138 1
251 1322 1
251 1454 1
251 1598 1
251 1688 1
252 18 1
252 210 1
252 321 1
252 501 1
252 598 1
252 857 1
252 982 1
252 1139 1
252 1323 1
252 1455 1
252 1599 1
252 1689 1
253 19 1
253 211 1
253 322 1
253 502 1
253 648 1
253 858 1
253 885 1
253 1140 1
253 1177 1
253 1456 1
253 1600 1
253 1690 1
254 20 1
254 212 1
254 323 1
254 503 1
254 698 1
254 859 1
254 935 1
254 1141 1
254 1178 1
254 1457 1
254 1601 1
254 1691 1
255 21 1
255 213 1
255 324 1
255 504 1
255 601 1
255 860 1
255 985 1
255 1142 1
255 1179 1
255 1458 1
255 1602 1
255 1692 1
256 22 1
256 214 1
256 325 1
256 505 1
256 651 1
256 861 1
256 888 1
256 1143 1
256 1180 1
256 1459 1
256 1603 1
256 1693 1
257 23 1
257 215 1
257 326 1
257 506 1
257 701 1
257 862 1
257 938 1
257 1144 1
257 1181 1
257 1460 1
257 1604 1
257 1694 1
258 24 1
258 216 1
258 327 1
258 507 1
258 604 1
258 863 1
258 988 1
258 1145 1
258 1182 1
258 1461 1
258 1605 1
258 1695 1
259 25 1
259 217 1
259 328 1
259 508 1
259 654 1
259 864 1
259 891 1
259 1146 1
259 1183 1
259 1462 1
259 1606 1
259 1696 1
260 26 1
260 218 1
260 329 1
260 509 1
260 704 1
260 865 1
260 941 1
260 1147 1
260 1184 1
260 1463 1
260 1607 1
260 1697 1
261 27 1
261 219 1
261 330 1
261 510 1
261 607 1
261 866 1
261 991 1
261 1148 1
261 1185 1
261 1464 1
261 1608 1
261 1698 1
262 28 1
262 220 1
262 331 1
262 511 1
262 657 1
262 867 1
262 894 1
262 1149 1
262 1186 1
262 1465 1
262 1609 1
262 1699 1
263 29 1
263 221 1
263 332 1
263 512 1
263 707 1
263 868 1
263 944 1
263 1150 1
263 1187 1
263 1466 1
263 1610 1
263 1700 1
264 30 1
264 222 1
264 333 1
264 513 1
264 610 1
264 869 1
264 994 1
264 1151 1
264 1188 1
264 1467 1
264 1611 1
264 1701 1
265 31 1
265 223 1
265 334 1
265 514 1
265 660 1
265 870 1
265 897 1
265 1152 1
265 1189 1
265 1468 1
265 1612 1
265 1702 1
266 32 1
266 224 1
266 335 1
266 515 1
266 710 1
266 871 1
266 947 1
266 1153 1
266 1190 1
266 1469 1
266 1613 1
266 1703 1
267 33 1
267 225 1
267 336 1
267 516 1
267 613 1
267 872 1
267 997 1
267 1154 1
267 1191 1
267 1470 1
267 1614 1
267 1704 1
268 34 1
268 226 1
268 337 1
268 517 1
268 663 1
268 873 1
268 900 1
268 1155 1
268 1192 1
268 1324 1
268 1615 1
268 1705 1
269 35 1
269 227 1
269 338 1
269 518 1
269 713 1
269 874 1
269 950 1
269 1156 1
269 1193 1
269 1325 1
269 1616 1
269 1706 1
270 36 1
270 228 1
270 339 1
270 519 1
270 616 1
270 875 1
270 1000 1
270 1157 1
270 1194 1
270 1326 1
270 1617 1
270 1707 1
271 37 1
271 229 1
271 340 1
271 520 1
271 666 1
271 876 1
271 903 1
271 1158 1
271 1195 1
271 1327 1
271 1471 1
271 1708 1
272 38 1
272 230 1
272 341 1
272 521 1
272 716 1
272 877 1
272 953 1
272 1159 1
272 1196 1
272 1328 1
272 1472 1
272 1709 1
273 39 1
273 231 1
273 342 1
273 522 1
273 619 1
273 878 1
273 1003 1
273 1160 1
273 1197 1
273 1329 1
273 1473 1
273 1710 1
274 40 1
274 232 1
274 343 1
274 523 1
274 669 1
274 879 1
274 906 1
274 1161 1
274 1198 1
274 1330 1
274 1474 1
274 1711 1
275 41 1
275 233 1
275 344 1
275 524 1
275 719 1
275 880 1
275 956 1
275 1162 1
275 1199 1
275 1331 1
275 1475 1
275 1712 1
276 42 1
276 234 1
276 345 1
276 525 1
276 622 1
276 881 1
276 1006 1
276 1163 1
276 1200 1
276 1332 1
276 1476 1
276 1713 1
277 43 1
277 235 1
277 346 1
277 526 1
277 672 1
277 882 1
277 909 1
277 1164 1
277 1201 1
277 1333 1
277 1477 1
277 1714 1
278 44 1
278 236 1
278 347 1
278 527 1
278 722 1
278 736 1
278 959 1
278 1165 1
278 1202 1
278 1334 1
278 1478 1
278 1715 1
279 45 1
279 237 1
279 348 1
279 528 1
279 625 1
279 737 1
279 1009 1
279 1166 1
279 1203 1
279 1335 1
279 1479 1
279 1716 1
280 46 1
280 238 1
280 349 1
280 529 1
280 675 1
280 738 1
280 912 1
280 1167 1
280 1204 1
280 1336 1
280 1480 1
280 1717 1
281 47 1
281 239 1
281 350 1
281 530 1
281 725 1
281 739 1
281 962 1
281 1168 1
281 1205 1
281 1337 1
281 1481 1
281 1718 1
282 48 1
282 240 1
282 351 1
282 531 1
282 628 1
282 740 1
282 1012 1
282 1169 1
282 1206 1
282 1338 1
282 1482 1
282 1719 1
283 49 1
283 241 1
283 352 1
283 532 1
283 678 1
283 741 1
283 915 1
283 1170 1
283 1207 1
283 1339 1
283 1483 1
283 1720 1
284 50 1
284 242 1
284 353 1
284 533 1
284 728 1
284 742 1
284 965 1
284 1171 1
284 1208 1
284 1340 1
284 1484 1
284 1721 1
285 51 1
285 243 1
285 354 1
285 534 1
285 631 1
285 743 1
285 1015 1
285 1172 1
285 1209 1
285 1341 1
285 1485 1
285 1722 1
286 52 1
286 244 1
286 355 1
286 535 1
286 681 1
286 744 1
286 918 1
286 1173 1
286 1210 1
286 1342 1
286 1486 1
286 1723 1
287 53 1
287 245 1
287 356 1
287 536 1
287 731 1
287 745 1
287 968 1
287 1174 1
287 1211 1
287 1343 1
287 1487 1
287 1724 1
288 54 1
288 246 1
288 357 1
288 537 1
288 634 1
288 746 1
288 1018 1
288 1175 1
288 1212 1
288 1344 1
288 1488 1
288 1725 1
289 55 1
289 247 1
289 358 1
289 538 1
289 684 1
289 747 1
289 921 1
289 1176 1
289 1213 1
289 1345 1
289 1489 1
289 1726 1
290 56 1
290 248 1
290 359 1
290 539 1
290 734 1
290 748 1
290 971 1
290 1030 1
290 1214 1
290 1346 1
290 1490 1
290 1727 1
291 57 1
291 249 1
291 360 1
291 540 1
291 637 1
291 749 1
291 1021 1
291 1031 1
291 1215 1
291 1347 1
291 1491 1
291 1728 1
292 58 1
292 250 1
292 361 1
292 541 1
292 687 1
292 750 1
292 924 1
292 1032 1
292 1216 1
292 1348 1
292 1492 1
292 1729 1
293 59 1
293 251 1
293 362 1
293 542 1
293 590 1
293 751 1
293 974 1
293 1033 1
293 1217 1
293 1349 1
293 1493 1
293 1730 1
294 60 1
294 252 1
294 363 1
294 543 1
294 640 1
294 752 1
294 1024 1
294 1034 1
294 1218 1
294 1350 1
294 1494 1
294 1731 1
295 18 1
295 208 1
295 400 1
295 511 1
295 691 1
295 837 1
295 997 1
295 1074 1
295 1182 1
295 1366 1
295 1498 1
295 1642 1
296 19 1
296 209 1
296 401 1
296 512 1
296 692 1
296 740 1
296 998 1
296 1124 1
296 1183 1
296 1367 1
296 1499 1
296 1643 1
297 20 1
297 210 1
297 402 1
297 513 1
297 693 1
297 790 1
297 999 1
297 1174 1
297 1184 1
297 1368 1
297 1500 1
297 1644 1
298 21 1
298 211 1
298 403 1
298 514 1
298 694 1
298 840 1
298 1000 1
298 1077 1
298 1185 1
298 1369 1
298 1501 1
298 1645 1
299 22 1
299 212 1
299 404 1
299 515 1
299 695 1
299 743 1
299 1001 1
299 1127 1
299 1186 1
299 1370 1
299 1502 1
299 1646 1
300 23 1
300 213 1
300 405 1
300 516 1
300 696 1
300 793 1
300 1002 1
300 1030 1
300 1187 1
300 1371 1
300 1503 1
300 1647 1
301 24 1
301 214 1
301 406 1
301 517 1
301 697 1
301 843 1
301 1003 1
301 1080 1
301 1188 1
301 1372 1
301 1504 1
301 1648 1
302 25 1
302 215 1
302 407 1
302 518 1
302 698 1
302 746 1
302 1004 1
302 1130 1
302 1189 1
302 1373 1
302 1505 1
302 1649 1
303 26 1
303 216 1
303 408 1
303 519 1
303 699 1
303 796 1
303 1005 1
303 1033 1
303 1190 1
303 1374 1
303 1506 1
303 1650 1
304 27 1
304 217 1
304 409 1
304 520 1
304 700 1
304 846 1
304 1006 1
304 1083 1
304 1191 1
304 1375 1
304 1507 1
304 1651 1
305 28 1
305 218 1
305 410 1
305 521 1
305 701 1
305 749 1
305 1007 1
305 1133 1
305 1192 1
305 1376 1
305 1508 1
305 1652 1
306 29 1
306 219 1
306 411 1
306 522 1
306 702 1
306 799 1
306 1008 1
306 1036 1
306 1193 1
306 1377 1
306 1509 1
306 1653 1
307 30 1
307 220 1
307 412 1
307 523 1
307 703 1
307 849 1
307 1009 1
307 1086 1
307 1194 1
307 1378 1
307 1510 1
307 1654 1
308 31 1
308 221 1
308 413 1
308 524 1
308 704 1
308 752 1
308 1010 1
308 1136 1
308 1195 1
308 1379 1
308 1511 1
308 1655 1
309 32 1
309 222 1
309 414 1
309 525 1
309 705 1
309 802 1
309 1011 1
309 1039 1
309 1196 1
309 1380 1
309 1512 1
309 1656 1
310 33 1
310 223 1
310 415 1
310 526 1
310 706 1
310 852 1
310 1012 1
310 1089 1
310 1197 1
310 1381 1
310 1513 1
310 1657 1
311 34 1
311 224 1
311 416 1
311 527 1
311 707 1
311 755 1
311 1013 1
311 1139 1
311 1198 1
311 1382 1
311 1514 1
311 1658 1
312 35 1
312 225 1
312 417 1
312 528 1
312 708 1
312 805 1
312 1014 1
312 1042 1
312 1199 1
312 1383 1
312 1515 1
312 1659 1
313 36 1
313 226 1
313 418 1
313 529 1
313 709 1
313 855 1
313 1015 1
313 1092 1
313 1200 1
313 1384 1
313 1516 1
313 1660 1
314 37 1
314 227 1
314 419 1
314 530 1
314 710 1
314 758 1
314 1016 1
314 1142 1
314 1201 1
314 1385 1
314 1517 1
314 1661 1
315 38 1
315 228 1
315 420 1
315 531 1
315 711 1
315 808 1
315 1017 1
315 1045 1
315 1202 1
315 1386 1
315 1518 1
315 1662 1
316 39 1
316 229 1
316 421 1
316 532 1
316 712 1
316 858 1
316 1018 1
316 1095 1
316 1203 1
316 1387 1
316 1519 1
316 1663 1
317 40 1
317 230 1
317 422 1
317 533 1
317 713 1
317 761 1
317 1019 1
317 1145 1
317 1204 1
317 1388 1
317 1520 1
317 1664 1
318 41 1
318 231 1
318 423 1
318 534 1
318 714 1
318 811 1
318 1020 1
318 1048 1
318 1205 1
318 1389 1
318 1521 1
318 1665 1
319 42 1
319 232 1
319 424 1
319 535 1
319 715 1
319 861 1
319 1021 1
319 1098 1
319 1206 1
319 1390 1
319 1522 1
319 1666 1
320 43 1
320 233 1
320 425 1
320 536 1
320 716 1
320 764 1
320 1022 1
320 1148 1
320 1207 1
320 1391 1
320 1523 1
320 1667 1
321 44 1
321 234 1
321 426 1
321 537 1
321 717 1
321 814 1
321 1023 1
321 1051 1
321 1208 1
321 1392 1
321 1524 1
321 1668 1
322 45 1
322 235 1
322 427 1
322 538 1
322 718 1
322 864 1
322 1024 1
322 1101 1
322 1209 1
322 1393 1
322 1525 1
322 1669 1
323 46 1
323 236 1
323 428 1
323 539 1
323 719 1
323 767 1
323 1025 1
323 1151 1
323 1210 1
323 1394 1
323 1526 1
323 1670 1
324 47 1
324 237 1
324 429 1
324 540 1
324 720 1
324 817 1
324 1026 1
324 1054 1
324 1211 1
324 1395 1
324 1527 1
324 1671 1
325 48 1
325 238 1
325 430 1
325 541 1
325 721 1
325 867 1
325 1027 1
325 1104 1
325 1212 1
325 1396 1
325 1528 1
325 1672 1
326 49 1
326 239 1
326 431 1
326 542 1
326 722 1
326 770 1
326 1028 1
326 1154 1
326 1213 1
326 1397 1
326 1529 1
326 1673 1
327 50 1
327 240 1
327 432 1
327 543 1
327 723 1
327 820 1
327 1029 1
327 1057 1
327 1214 1
327 1398 1
327 1530 1
327 1674 1
328 51 1
328 241 1
328 433 1
328 544 1
328 724 1
328 870 1
328 883 1
328 1107 1
328 1215 1
328 1399 1
328 1531 1
328 1675 1
329 52 1
329 242 1
329 434 1
329 545 1
329 725 1
329 773 1
329 884 1
329 1157 1
329 1216 1
329 1400 1
329 1532 1
329 1676 1
330 53 1
330 243 1
330 435 1
330 546 1
330 726 1
330 823 1
330 885 1
330 1060 1
330 1217 1
330 1401 1
330 1533 1
330 1677 1
331 54 1
331 244 1
331 436 1
331 547 1
331 727 1
331 873 1
331 886 1
331 1110 1
331 1218 1
331 1402 1
331 1534 1
331 1678 1
332 55 1
332 245 1
332 437 1
332 548 1
332 728 1
332 776 1
332 887 1
332 1160 1
332 1219 1
332 1403 1
332 1535 1
332 1679 1
333 56 1
333 246 1
333 438 1
333 549 1
333 729 1
333 826 1
333 888 1
333 1063 1
333 1220 1
333 1404 1
333 1536 1
333 1680 1
334 57 1
334 247 1
334 439 1
334 550 1
334 730 1
334 876 1
334 889 1
334 1113 1
334 1221 1
334 1405 1
334 1537 1
334 1681 1
335 58 1
335 248 1
335 440 1
335 551 1
335 731 1
335 779 1
335 890 1
335 1163 1
335 1222 1
335 1406 1
335 1538 1
335 1682 1
336 59 1
336 249 1
336 441 1
336 552 1
336 732 1
336 829 1
336 891 1
336 1066 1
336 1223 1
336 1407 1
336 1539 1
336 1683 1
337 60 1
337 250 1
337 295 1
337 553 1
337 733 1
337 879 1
337 892 1
337 1116 1
337 1224 1
337 1408 1
337 1540 1
337 1684 1
338 61 1
338 251 1
338 296 1
338 554 1
338 734 1
338 782 1
338 893 1
338 1166 1
338 1225 1
338 1409 1
338 1541 1
338 1685 1
339 62 1
339 252 1
339 297 1
339 555 1
339 735 1
339 832 1
339 894 1
339 1069 1
339 1226 1
339 1410 1
339 1542 1
339 1686 1
340 63 1
340 253 1
340 298 1
340 556 1
340 589 1
340 882 1
340 895 1
340 1119 1
340 1227 1
340 1411 1
340 1543 1
340 1687 1
341 64 1
341 254 1
341 299 1
341 557 1
341 590 1
341 785 1
341 896 1
341 1169 1
341 1228 1
341 1412 1
341 1544 1
341 1688 1
342 65 1
342 255 1
342 300 1
342 558 1
342 591 1
342 835 1
342 897 1
342 1072 1
342 1229 1
342 1413 1
342 1545 1
342 1689 1
343 66 1
343 256 1
343 301 1
343 559 1
343 592 1
343 738 1
343 898 1
343 1122 1
343 1230 1
343 1414 1
343 1546 1
343 1690 1
344 67 1
344 257 1
344 302 1
344 560 1
344 593 1
344 788 1
344 899 1
344 1172 1
344 1231 1
344 1415 1
344 1547 1
344 1691 1
345 68 1
345 258 1
345 303 1
345 561 1
345 594 1
345 838 1
345 900 1
345 1075 1
345 1232 1
345 1416 1
345 1548 1
345 1692 1
346 69 1
346 259 1
346 304 1
346 562 1
346 595 1
346 741 1
346 901 1
346 1125 1
346 1233 1
346 1417 1
346 1549 1
346 1693 1
347 70 1
347 260 1
347 305 1
347 563 1
347 596 1
347 791 1
347 902 1
347 1175 1
347 1234 1
347 1418 1
347 1550 1
347 1694 1
348 71 1
348 261 1
348 306 1
348 564 1
348 597 1
348 841 1
348 903 1
348 1078 1
348 1235 1
348 1419 1
348 1551 1
348 1695 1
349 72 1
349 262 1
349 307 1
349 565 1
349 598 1
349 744 1
349 904 1
349 1128 1
349 1236 1
349 1420 1
349 1552 1
349 1696 1
350 73 1
350 263 1
350 308 1
350 566 1
350 599 1
350 794 1
350 905 1
350 1031 1
350 1237 1
350 1421 1
350 1553 1
350 1697 1
351 74 1
351 264 1
351 309 1
351 567 1
351 600 1
351 844 1
351 906 1
351 1081 1
351 1238 1
351 1422 1
351 1554 1
351 1698 1
352 75 1
352 265 1
352 310 1
352 568 1
352 601 1
352 747 1
352 907 1
352 1131 1
352 1239 1
352 1423 1
352 1555 1
352 1699 1
353 76 1
353 266 1
353 311 1
353 569 1
353 602 1
353 797 1
353 908 1
353 1034 1
353 1240 1
353 1424 1
353 1556 1
353 1700 1
354 77 1
354 267 1
354 312 1
354 570 1
354 603 1
354 847 1
354 909 1
354 1084 1
354 1241 1
354 1425 1
354 1557 1
354 1701 1
355 78 1
355 268 1
355 313 1
355 571 1
355 604 1
355 750 1
355 910 1
355 1134 1
355 1242 1
355 1426 1
355 1558 1
355 1702 1
356 79 1
356 269 1
356 314 1
356 572 1
356 605 1
356 800 1
356 911 1
356 1037 1
356 1243 1
356 1427 1
356 1559 1
356 1703 1
357 80 1
357 270 1
357 315 1
357 573 1
357 606 1
357 850 1
357 912 1
357 1087 1
357 1244 1
357 1428 1
357 1560 1
357 1704 1
358 81 1
358 271 1
358 316 1
358 574 1
358 607 1
358 753 1
358 913 1
358 1137 1
358 1245 1
358 1429 1
358 1561 1
358 1705 1
359 82 1
359 272 1
359 317 1
359 575 1
359 608 1
359 803 1
359 914 1
359 1040 1
359 1246 1
359 1430 1
359 1562 1
359 1706 1
360 83 1
360 273 1
360 318 1
360 576 1
360 609 1
360 853 1
360 915 1
360 1090 1
360 1247 1
360 1431 1
360 1563 1
360 1707 1
361 84 1
361 274 1
361 319 1
361 577 1
361 610 1
361 756 1
361 916 1
361 1140 1
361 1248 1
361 1432 1
361 1564 1
361 1708 1
362 85 1
362 275 1
362 320 1
362 578 1
362 611 1
362 806 1
362 917 1
362 1043 1
362 1249 1
362 1433 1
362 1565 1
362 1709 1
363 86 1
363 276 1
363 321 1
363 579 1
363 612 1
363 856 1
363 918 1
363 1093 1
363 1250 1
363 1434 1
363 1566 1
363 1710 1
364 87 1
364 277 1
364 322 1
364 580 1
364 613 1
364 759 1
364 919 1
364 1143 1
364 1251 1
364 1435 1
364 1567 1
364 1711 1
365 88 1
365 278 1
365 323 1
365 581 1
365 614 1
365 809 1
365 920 1
365 1046 1
365 1252 1
365 1436 1
365 1568 1
365 1712 1
366 89 1
366 279 1
366 324 1
366 582 1
366 615 1
366 859 1
366 921 1
366 1096 1
366 1253 1
366 1437 1
366 1569 1
366 1713 1
367 90 1
367 280 1
367 325 1
367 583 1
367 616 1
367 762 1
367 922 1
367 1146 1
367 1254 1
367 1438 1
367 1570 1
367 1714 1
368 91 1
368 281 1
368 326 1
368 584 1
368 617 1
368 812 1
368 923 1
368 1049 1
368 1255 1
368 1439 1
368 1571 1
368 1715 1
369 92 1
369 282 1
369 327 1
369 585 1
369 618 1
369 862 1
369 924 1
369 1099 1
369 1256 1
369 1440 1
369 1572 1
369 1716 1
370 93 1
370 283 1
370 328 1
370 586 1
370 619 1
370 765 1
370 925 1
370 1149 1
370 1257 1
370 1441 1
370 1573 1
370 1717 1
371 94 1
371 284 1
371 329 1
371 587 1
371 620 1
371 815 1
371 926 1
371 1052 1
371 1258 1
371 1442 1
371 1574 1
371 1718 1
372 95 1
372 285 1
372 330 1
372 588 1
372 621 1
372 865 1
372 927 1
372 1102 1
372 1259 1
372 1443 1
372 1575 1
372 1719 1
373 96 1
373 286 1
373 331 1
373 442 1
373 622 1
373 768 1
373 928 1
373 1152 1
373 1260 1
373 1444 1
373 1576 1
373 1720 1
374 97 1
374 287 1
374 332 1
374 443 1
374 623 1
374 818 1
374 929 1
374 1055 1
374 1261 1
374 1445 1
374 1577 1
374 1721 1
375 98 1
375 288 1
375 333 1
375 444 1
375 624 1
375 868 1
375 930 1
375 1105 1
375 1262 1
375 1446 1
375 1578 1
375 1722 1
376 99 1
376 289 1
376 334 1
376 445 1
376 625 1
376 771 1
376 931 1
376 1155 1
376 1263 1
376 1447 1
376 1579 1
376 1723 1
377 100 1
377 290 1
377 335 1
377 446 1
377 626 1
377 821 1
377 932 1
377 1058 1
377 1264 1
377 1448 1
377 1580 1
377 1724 1
378 101 1
378 291 1
378 336 1
378 447 1
378 627 1
378 871 1
378 933 1
378 1108 1
378 1265 1
378 1449 1
378 1581 1
378 1725 1
379 102 1
379 292 1
379 337 1
379 448 1
379 628 1
379 774 1
379 934 1
379 1158 1
379 1266 1
379 1450 1
379 1582 1
379 1726 1
380 103 1
380 293 1
380 338 1
380 449 1
380 629 1
380 824 1
380 935 1
380 1061 1
380 1267 1
380 1451 1
380 1583 1
380 1727 1
381 104 1
381 294 1
381 339 1
381 450 1
381 630 1
381 874 1
381 936 1
381 1111 1
381 1268 1
381 1452 1
381 1584 1
381 1728 1
382 105 1
382 148 1
382 340 1
382 451 1
382 631 1
382 777 1
382 937 1
382 1161 1
382 1269 1
382 1453 1
382 1585 1
382 1729 1
383 106 1
383 149 1
383 341 1
383 452 1
383 632 1
383 827 1
383 938 1
383 1064 1
383 1270 1
383 1454 1
383 1586 1
383 1730 1
384 107 1
384 150 1
384 342 1
384 453 1
384 633 1
384 877 1
384 939 1
384 1114 1
384 1271 1
384 1455 1
384 1587 1
384 1731 1
385 108 1
385 151 1
385 343 1
385 454 1
385 634 1
385 780 1
385 940 1
385 1164 1
385 1272 1
385 1456 1
385 1588 1
385 1732 1
386 109 1
386 152 1
386 344 1
386 455 1
386 635 1
386 830 1
386 941 1
386 1067 1
386 1273 1
386 1457 1
386 1589 1
386 1733 1
387 110 1
387 153 1
387 345 1
387 456 1
387 636 1
387 880 1
387 942 1
387 1117 1
387 1274 1
387 1458 1
387 1590 1
387 1734 1
388 111 1
388 154 1
388 346 1
388 457 1
388 637 1
388 783 1
388 943 1
388 1167 1
388 1275 1
388 1459 1
388 1591 1
388 1735 1
389 112 1
389 155 1
389 347 1
389 458 1
389 638 1
389 833 1
389 944 1
389 1070 1
389 1276 1
389 1460 1
389 1592 1
389 1736 1
390 113 1
390 156 1
390 348 1
390 459 1
390 639 1
390 736 1
390 945 1
390 1120 1
390 1277 1
390 1461 1
390 1593 1
390 1737 1
391 114 1
391 157 1
391 349 1
391 460 1
391 640 1
391 786 1
391 946 1
391 1170 1
391 1278 1
391 1462 1
391 1594 1
391 1738 1
392 115 1
392 158 1
392 350 1
392 461 1
392 641 1
392 836 1
392 947 1
392 1073 1
392 1279 1
392 1463 1
392 1595 1
392 1739 1
393 116 1
393 159 1
393 351 1
393 462 1
393 642 1
393 739 1
393 948 1
393 1123 1
393 1280 1
393 1464 1
393 1596 1
393 1740 1
394 117 1
394 160 1
394 352 1
394 463 1
394 643 1
394 789 1
394 949 1
394 1173 1
394 1281 1
394 1465 1
394 1597 1
394 1741 1
395 118 1
395 161 1
395 353 1
395 464 1
395 644 1
395 839 1
395 950 1
395 1076 1
395 1282 1
395 1466 1
395 1598 1
395 1742 1
396 119 1
396 162 1
396 354 1
396 465 1
396 645 1
396 742 1
396 951 1
396 1126 1
396 1283 1
396 1467 1
396 1599 1
396 1743 1
397 120 1
397 163 1
397 355 1
397 466 1
397 646 1
397 792 1
397 952 1
397 1176 1
397 1284 1
397 1468 1
397 1600 1
397 1744 1
398 121 1
398 164 1
398 356 1
398 467 1
398 647 1
398 842 1
398 953 1
398 1079 1
398 1285 1
398 1469 1
398 1601 1
398 1745 1
399 122 1
399 165 1
399 357 1
399 468 1
399 648 1
399 745 1
399 954 1
399 1129 1
399 1286 1
399 1470 1
399 1602 1
399 1746 1
400 123 1
400 166 1
400 358 1
400 469 1
400 649 1
400 795 1
400 955 1
400 1032 1
400 1287 1
400 1324 1
400 1603 1
400 1747 1
401 124 1
401 167 1
401 359 1
401 470 1
401 650 1
401 845 1
401 956 1
401 1082 1
401 1288 1
401 1325 1
401 1604 1
401 1748 1
402 125 1
402 168 1
402 360 1
402 471 1
402 651 1
402 748 1
402 957 1
402 1132 1
402 1289 1
402 1326 1
402 1605 1
402 1749 1
403 126 1
403 169 1
403 361 1
403 472 1
403 652 1
403 798 1
403 958 1
403 1035 1
403 1290 1
403 1327 1
403 1606 1
403 1750 1
404 127 1
404 170 1
404 362 1
404 473 1
404 653 1
404 848 1
404 959 1
404 1085 1
404 1291 1
404 1328 1
404 1607 1
404 1751 1
405 128 1
405 171 1
405 363 1
405 474 1
405 654 1
405 751 1
405 960 1
405 1135 1
405 1292 1
405 1329 1
405 1608 1
405 1752 1
406 129 1
406 172 1
406 364 1
406 475 1
406 655 1
406 801 1
406 961 1
406 1038 1
406 1293 1
406 1330 1
406 1609 1
406 1753 1
407 130 1
407 173 1
407 365 1
407 476 1
407 656 1
407 851 1
407 962 1
407 1088 1
407 1294 1
407 1331 1
407 1610 1
407 1754 1
408 131 1
408 174 1
408 366 1
408 477 1
408 657 1
408 754 1
408 963 1
408 1138 1
408 1295 1
408 1332 1
408 1611 1
408 1755 1
409 132 1
409 175 1
409 367 1
409 478 1
409 658 1
409 804 1
409 964 1
409 1041 1
409 1296 1
409 1333 1
409 1612 1
409 1756 1
410 133 1
410 176 1
410 368 1
410 479 1
410 659 1
410 854 1
410 965 1
410 1091 1
410 1297 1
410 1334 1
410 1613 1
410 1757 1
411 134 1
411 177 1
411 369 1
411 480 1
411 660 1
411 757 1
411 966 1
411 1141 1
411 1298 1
411 1335 1
411 1614 1
411 1758 1
412 135 1
412 178 1
412 370 1
412 481 1
412 661 1
412 807 1
412 967 1
412 1044 1
412 1299 1
412 1336 1
412 1615 1
412 1759 1
413 136 1
413 179 1
413 371 1
413 482 1
413 662 1
413 857 1
413 968 1
413 1094 1
413 1300 1
413 1337 1
413 1616 1
413 1760 1
414 137 1
414 180 1
414 372 1
414 483 1
414 663 1
414 760 1
414 969 1
414 1144 1
414 1301 1
414 1338 1
414 1617 1
414 1761 1
415 138 1
415 181 1
415 373 1
415 484 1
415 664 1
415 810 1
415 970 1
415 1047 1
415 1302 1
415 1339 1
415 1471 1
415 1762 1
416 139 1
416 182 1
416 374 1
416 485 1
416 665 1
416 860 1
416 971 1
416 1097 1
416 1303 1
416 1340 1
416 1472 1
416 1763 1
417 140 1
417 183 1
417 375 1
417 486 1
417 666 1
417 763 1
417 972 1
417 1147 1
417 1304 1
417 1341 1
417 1473 1
417 1764 1
418 141 1
418 184 1
418 376 1
418 487 1
418 667 1
418 813 1
418 973 1
418 1050 1
418 1305 1
418 1342 1
418 1474 1
418 1618 1
419 142 1
419 185 1
419 377 1
419 488 1
419 668 1
419 863 1
419 974 1
419 1100 1
419 1306 1
419 1343 1
419 1475 1
419 1619 1
420 143 1
420 186 1
420 378 1
420 489 1
420 669 1
420 766 1
420 975 1
420 1150 1
420 1307 1
420 1344 1
420 1476 1
420 1620 1
421 144 1
421 187 1
421 379 1
421 490 1
421 670 1
421 816 1
421 976 1
421 1053 1
421 1308 1
421 1345 1
421 1477 1
421 1621 1
422 145 1
422 188 1
422 380 1
422 491 1
422 671 1
422 866 1
422 977 1
422 1103 1
422 1309 1
422 1346 1
422 1478 1
422 1622 1
423 146 1
423 189 1
423 381 1
423 492 1
423 672 1
423 769 1
423 978 1
423 1153 1
423 1310 1
423 1347 1
423 1479 1
423 1623 1
424 147 1
424 190 1
424 382 1
424 493 1
424 673 1
424 819 1
424 979 1
424 1056 1
424 1311 1
424 1348 1
424 1480 1
424 1624 1
425 1 1
425 191 1
425 383 1
425 494 1
425 674 1
425 869 1
425 980 1
425 1106 1
425 1312 1
425 1349 1
425 1481 1
425 1625 1
426 2 1
426 192 1
426 384 1
426 495 1
426 675 1
426 772 1
426 981 1
426 1156 1
426 1313 1
426 1350 1
426 1482 1
426 1626 1
427 3 1
427 193 1
427 385 1
427 496 1
427 676 1
427 822 1
427 982 1
427 1059 1
427 1314 1
427 1351 1
427 1483 1
427 1627 1
428 4 1
428 194 1
428 386 1
428 497 1
428 677 1
428 872 1
428 983 1
428 1109 1
428 1315 1
428 1352 1
428 1484 1
428 1628 1
429 5 1
429 195 1
429 387 1
429 498 1
429 678 1
429 775 1
429 984 1
429 1159 1
429 1316 1
429 1353 1
429 1485 1
429 1629 1
430 6 1
430 196 1
430 388 1
430 499 1
430 679 1
430 825 1
430 985 1
430 1062 1
430 1317 1
430 1354 1
430 1486 1
430 1630 1
431 7 1
431 197 1
431 389 1
431 500 1
431 680 1
431 875 1
431 986 1
431 1112 1
431 1318 1
431 1355 1
431 1487 1
431 1631 1
432 8 1
432 198 1
432 390 1
432 501 1
432 681 1
432 778 1
432 987 1
432 1162 1
432 1319 1
432 1356 1
432 1488 1
432 1632 1
433 9 1
433 199 1
433 391 1
433 502 1
433 682 1
433 828 1
433 988 1
433 1065 1
433 1320 1
433 1357 1
433 1489 1
433 1633 1
434 10 1
434 200 1
434 392 1
434 503 1
434 683 1
434 878 1
434 989 1
434 1115 1
434 1321 1
434 1358 1
434 1490 1
434 1634 1
435 11 1
435 201 1
435 393 1
435 504 1
435 684 1
435 781 1
435 990 1
435 1165 1
435 1322 1
435 1359 1
435 1491 1
435 1635 1
436 12 1
436 202 1
436 394 1
436 505 1
436 685 1
436 831 1
436 991 1
436 1068 1
436 1323 1
436 1360 1
436 1492 1
436 1636 1
437 13 1
437 203 1
437 395 1
437 506 1
437 686 1
437 881 1
437 992 1
437 1118 1
437 1177 1
437 1361 1
437 1493 1
437 1637 1
438 14 1
438 204 1
438 396 1
438 507 1
438 687 1
438 784 1
438 993 1
438 1168 1
438 1178 1
438 1362 1
438 1494 1
438 1638 1
439 15 1
439 205 1
439 397 1
439 508 1
439 688 1
439 834 1
439 994 1
439 1071 1
439 1179 1
439 1363 1
439 1495 1
439 1639 1
440 16 1
440 206 1
440 398 1
440 509 1
440 689 1
440 737 1
440 995 1
440 1121 1
440 1180 1
440 1364 1
440 1496 1
440 1640 1
441 17 1
441 207 1
441 399 1
441 510 1
441 690 1
441 787 1
441 996 1
441 1171 1
441 1181 1
441 1365 1
441 1497 1
441 1641 1
