%%MatrixMarket matrix coordinate integer general
%
144 576 1728
1 43 1
1 94 1
1 139 1
1 150 1
1 231 1
1 277 1
1 336 1
1 361 1
1 421 1
1 469 1
1 487 1
1 540 1
2 44 1
2 95 1
2 140 1
2 167 1
2 232 1
2 278 1
2 289 1
2 362 1
2 422 1
2 470 1
2 488 1
2 557 1
3 45 1
3 96 1
3 141 1
3 184 1
3 233 1
3 279 1
3 290 1
3 363 1
3 423 1
3 471 1
3 489 1
3 574 1
4 46 1
4 49 1
4 142 1
4 153 1
4 234 1
4 280 1
4 291 1
4 364 1
4 424 1
4 472 1
4 490 1
4 543 1
5 47 1
5 50 1
5 143 1
5 170 1
5 235 1
5 281 1
5 292 1
5 365 1
5 425 1
5 473 1
5 491 1
5 560 1
6 48 1
6 51 1
6 144 1
6 187 1
6 236 1
6 282 1
6 293 1
6 366 1
6 426 1
6 474 1
6 492 1
6 529 1
7 1 1
7 52 1
7 97 1
7 156 1
7 237 1
7 283 1
7 294 1
7 367 1
7 427 1
7 475 1
7 493 1
7 546 1
8 2 1
8 53 1
8 98 1
8 173 1
8 238 1
8 284 1
8 295 1
8 368 1
8 428 1
8 476 1
8 494 1
8 563 1
9 3 1
9 54 1
9 99 1
9 190 1
9 239 1
9 285 1
9 296 1
9 369 1
9 429 1
9 477 1
9 495 1
9 532 1
10 4 1
10 55 1
10 100 1
10 159 1
10 240 1
10 286 1
10 297 1
10 370 1
10 430 1
10 478 1
10 496 1
10 549 1
11 5 1
11 56 1
11 101 1
11 176 1
11 193 1
11 287 1
11 298 1
11 371 1
11 431 1
11 479 1
11 497 1
11 566 1
12 6 1
12 57 1
12 102 1
12 145 1
12 194 1
12 288 1
12 299 1
12 372 1
12 432 1
12 480 1
12 498 1
12 535 1
13 7 1
13 58 1
13 103 1
13 162 1
13 195 1
13 241 1
13 300 1
13 373 1
13 385 1
13 433 1
13 499 1
13 552 1
14 8 1
14 59 1
14 104 1
14 179 1
14 196 1
14 242 1
14 301 1
14 374 1
14 386 1
14 434 1
14 500 1
14 569 1
15 9 1
15 60 1
15 105 1
15 148 1
15 197 1
15 243 1
15 302 1
15 375 1
15 387 1
15 435 1
15 501 1
15 538 1
16 10 1
16 61 1
16 106 1
16 165 1
16 198 1
16 244 1
16 303 1
16 376 1
16 388 1
16 436 1
16 502 1
16 555 1
17 11 1
17 62 1
17 107 1
17 182 1
17 199 1
17 245 1
17 304 1
17 377 1
17 389 1
17 437 1
17 503 1
17 572 1
18 12 1
18 63 1
18 108 1
18 151 1
18 200 1
18 246 1
18 305 1
18 378 1
18 390 1
18 438 1
18 504 1
18 541 1
19 13 1
19 64 1
19 109 1
19 168 1
19 201 1
19 247 1
19 306 1
19 379 1
19 391 1
19 439 1
19 505 1
19 558 1
20 14 1
20 65 1
20 110 1
20 185 1
20 202 1
20 248 1
20 307 1
20 380 1
20 392 1
20 440 1
20 506 1
20 575 1
21 15 1
21 66 1
21 111 1
21 154 1
21 203 1
21 249 1
21 308 1
21 381 1
21 393 1
21 441 1
21 507 1
21 544 1
22 16 1
22 67 1
22 112 1
22 171 1
22 204 1
22 250 1
22 309 1
22 382 1
22 394 1
22 442 1
22 508 1
22 561 1
23 17 1
23 68 1
23 113 1
23 188 1
23 205 1
23 251 1
23 310 1
23 383 1
23 395 1
23 443 1
23 509 1
23 530 1
24 18 1
24 69 1
24 114 1
24 157 1
24 206 1
24 252 1
24 311 1
24 384 1
24 396 1
24 444 1
24 510 1
24 547 1
25 19 1
25 70 1
25 115 1
25 174 1
25 207 1
25 253 1
25 312 1
25 337 1
25 397 1
25 445 1
25 511 1
25 564 1
26 20 1
26 71 1
26 116 1
26 191 1
26 208 1
26 254 1
26 313 1
26 338 1
26 398 1
26 446 1
26 512 1
26 533 1
27 21 1
27 72 1
27 117 1
27 160 1
27 209 1
27 255 1
27 314 1
27 339 1
27 399 1
27 447 1
27 513 1
27 550 1
28 22 1
28 73 1
28 118 1
28 177 1
28 210 1
28 256 1
28 315 1
28 340 1
28 400 1
28 448 1
28 514 1
28 567 1
29 23 1
29 74 1
29 119 1
29 146 1
29 211 1
29 257 1
29 316 1
29 341 1
29 401 1
29 449 1
29 515 1
29 536 1
30 24 1
30 75 1
30 120 1
30 163 1
30 212 1
30 258 1
30 317 1
30 342 1
30 402 1
30 450 1
30 516 1
30 553 1
31 25 1
31 76 1
31 121 1
31 180 1
31 213 1
31 259 1
31 318 1
31 343 1
31 403 1
31 451 1
31 517 1
31 570 1
32 26 1
32 77 1
32 122 1
32 149 1
32 214 1
32 260 1
32 319 1
32 344 1
32 404 1
32 452 1
32 518 1
32 539 1
33 27 1
33 78 1
33 123 1
33 166 1
33 215 1
33 261 1
33 320 1
33 345 1
33 405 1
33 453 1
33 519 1
33 556 1
34 28 1
34 79 1
34 124 1
34 183 1
34 216 1
34 262 1
34 321 1
34 346 1
34 406 1
34 454 1
34 520 1
34 573 1
35 29 1
35 80 1
35 125 1
35 152 1
35 217 1
35 263 1
35 322 1
35 347 1
35 407 1
35 455 1
35 521 1
35 542 1
36 30 1
36 81 1
36 126 1
36 169 1
36 218 1
36 264 1
36 323 1
36 348 1
36 408 1
36 456 1
36 522 1
36 559 1
37 31 1
37 82 1
37 127 1
37 186 1
37 219 1
37 265 1
37 324 1
37 349 1
37 409 1
37 457 1
37 523 1
37 576 1
38 32 1
38 83 1
38 128 1
38 155 1
38 220 1
38 266 1
38 325 1
38 350 1
38 410 1
38 458 1
38 524 1
38 545 1
39 33 1
39 84 1
39 129 1
39 172 1
39 221 1
39 267 1
39 326 1
39 351 1
39 411 1
39 459 1
39 525 1
39 562 1
40 34 1
40 85 1
40 130 1
40 189 1
40 222 1
40 268 1
40 327 1
40 352 1
40 412 1
40 460 1
40 526 1
40 531 1
41 35 1
41 86 1
41 131 1
41 158 1
41 223 1
41 269 1
41 328 1
41 353 1
41 413 1
41 461 1
41 527 1
41 548 1
42 36 1
42 87 1
42 132 1
42 175 1
42 224 1
42 270 1
42 329 1
42 354 1
42 414 1
42 462 1
42 528 1
42 565 1
43 37 1
43 88 1
43 133 1
43 192 1
43 225 1
43 271 1
43 330 1
43 355 1
43 415 1
43 463 1
43 481 1
43 534 1
44 38 1
44 89 1
44 134 1
44 161 1
44 226 1
44 272 1
44 331 1
44 356 1
44 416 1
44 464 1
44 482 1
44 551 1
45 39 1
45 90 1
45 135 1
45 178 1
45 227 1
45 273 1
45 332 1
45 357 1
45 417 1
45 465 1
45 483 1
45 568 1
46 40 1
46 91 1
46 136 1
46 147 1
46 228 1
46 274 1
46 333 1
46 358 1
46 418 1
46 466 1
46 484 1
46 537 1
47 41 1
47 92 1
47 137 1
47 164 1
47 229 1
47 275 1
47 334 1
47 359 1
47 419 1
47 467 1
47 485 1
47 554 1
48 42 1
48 93 1
48 138 1
48 181 1
48 230 1
48 276 1
48 335 1
48 360 1
48 420 1
48 468 1
48 486 1
48 571 1
49 37 1
49 91 1
49 142 1
49 187 1
49 198 1
49 279 1
49 300 1
49 384 1
49 409 1
49 469 1
49 517 1
49 535 1
50 38 1
50 92 1
50 143 1
50 188 1
50 215 1
50 280 1
50 317 1
50 337 1
50 410 1
50 470 1
50 518 1
50 536 1
51 39 1
51 93 1
51 144 1
51 189 1
51 232 1
51 281 1
51 334 1
51 338 1
51 411 1
51 471 1
51 519 1
51 537 1
52 40 1
52 94 1
52 97 1
52 190 1
52 201 1
52 282 1
52 303 1
52 339 1
52 412 1
52 472 1
52 520 1
52 538 1
53 41 1
53 95 1
53 98 1
53 191 1
53 218 1
53 283 1
53 320 1
53 340 1
53 413 1
53 473 1
53 521 1
53 539 1
54 42 1
54 96 1
54 99 1
54 192 1
54 235 1
54 284 1
54 289 1
54 341 1
54 414 1
54 474 1
54 522 1
54 540 1
55 43 1
55 49 1
55 100 1
55 145 1
55 204 1
55 285 1
55 306 1
55 342 1
55 415 1
55 475 1
55 523 1
55 541 1
56 44 1
56 50 1
56 101 1
56 146 1
56 221 1
56 286 1
56 323 1
56 343 1
56 416 1
56 476 1
56 524 1
56 542 1
57 45 1
57 51 1
57 102 1
57 147 1
57 238 1
57 287 1
57 292 1
57 344 1
57 417 1
57 477 1
57 525 1
57 543 1
58 46 1
58 52 1
58 103 1
58 148 1
58 207 1
58 288 1
58 309 1
58 345 1
58 418 1
58 478 1
58 526 1
58 544 1
59 47 1
59 53 1
59 104 1
59 149 1
59 224 1
59 241 1
59 326 1
59 346 1
59 419 1
59 479 1
59 527 1
59 545 1
60 48 1
60 54 1
60 105 1
60 150 1
60 193 1
60 242 1
60 295 1
60 347 1
60 420 1
60 480 1
60 528 1
60 546 1
61 1 1
61 55 1
61 106 1
61 151 1
61 210 1
61 243 1
61 312 1
61 348 1
61 421 1
61 433 1
61 481 1
61 547 1
62 2 1
62 56 1
62 107 1
62 152 1
62 227 1
62 244 1
62 329 1
62 349 1
62 422 1
62 434 1
62 482 1
62 548 1
63 3 1
63 57 1
63 108 1
63 153 1
63 196 1
63 245 1
63 298 1
63 350 1
63 423 1
63 435 1
63 483 1
63 549 1
64 4 1
64 58 1
64 109 1
64 154 1
64 213 1
64 246 1
64 315 1
64 351 1
64 424 1
64 436 1
64 484 1
64 550 1
65 5 1
65 59 1
65 110 1
65 155 1
65 230 1
65 247 1
65 332 1
65 352 1
65 425 1
65 437 1
65 485 1
65 551 1
66 6 1
66 60 1
66 111 1
66 156 1
66 199 1
66 248 1
66 301 1
66 353 1
66 426 1
66 438 1
66 486 1
66 552 1
67 7 1
67 61 1
67 112 1
67 157 1
67 216 1
67 249 1
67 318 1
67 354 1
67 427 1
67 439 1
67 487 1
67 553 1
68 8 1
68 62 1
68 113 1
68 158 1
68 233 1
68 250 1
68 335 1
68 355 1
68 428 1
68 440 1
68 488 1
68 554 1
69 9 1
69 63 1
69 114 1
69 159 1
69 202 1
69 251 1
69 304 1
69 356 1
69 429 1
69 441 1
69 489 1
69 555 1
70 10 1
70 64 1
70 115 1
70 160 1
70 219 1
70 252 1
70 321 1
70 357 1
70 430 1
70 442 1
70 490 1
70 556 1
71 11 1
71 65 1
71 116 1
71 161 1
71 236 1
71 253 1
71 290 1
71 358 1
71 431 1
71 443 1
71 491 1
71 557 1
72 12 1
72 66 1
72 117 1
72 162 1
72 205 1
72 254 1
72 307 1
72 359 1
72 432 1
72 444 1
72 492 1
72 558 1
73 13 1
73 67 1
73 118 1
73 163 1
73 222 1
73 255 1
73 324 1
73 360 1
73 385 1
73 445 1
73 493 1
73 559 1
74 14 1
74 68 1
74 119 1
74 164 1
74 239 1
74 256 1
74 293 1
74 361 1
74 386 1
74 446 1
74 494 1
74 560 1
75 15 1
75 69 1
75 120 1
75 165 1
75 208 1
75 257 1
75 310 1
75 362 1
75 387 1
75 447 1
75 495 1
75 561 1
76 16 1
76 70 1
76 121 1
76 166 1
76 225 1
76 258 1
76 327 1
76 363 1
76 388 1
76 448 1
76 496 1
76 562 1
77 17 1
77 71 1
77 122 1
77 167 1
77 194 1
77 259 1
77 296 1
77 364 1
77 389 1
77 449 1
77 497 1
77 563 1
78 18 1
78 72 1
78 123 1
78 168 1
78 211 1
78 260 1
78 313 1
78 365 1
78 390 1
78 450 1
78 498 1
78 564 1
79 19 1
79 73 1
79 124 1
79 169 1
79 228 1
79 261 1
79 330 1
79 366 1
79 391 1
79 451 1
79 499 1
79 565 1
80 20 1
80 74 1
80 125 1
80 170 1
80 197 1
80 262 1
80 299 1
80 367 1
80 392 1
80 452 1
80 500 1
80 566 1
81 21 1
81 75 1
81 126 1
81 171 1
81 214 1
81 263 1
81 316 1
81 368 1
81 393 1
81 453 1
81 501 1
81 567 1
82 22 1
82 76 1
82 127 1
82 172 1
82 231 1
82 264 1
82 333 1
82 369 1
82 394 1
82 454 1
82 502 1
82 568 1
83 23 1
83 77 1
83 128 1
83 173 1
83 200 1
83 265 1
83 302 1
83 370 1
83 395 1
83 455 1
83 503 1
83 569 1
84 24 1
84 78 1
84 129 1
84 174 1
84 217 1
84 266 1
84 319 1
84 371 1
84 396 1
84 456 1
84 504 1
84 570 1
85 25 1
85 79 1
85 130 1
85 175 1
85 234 1
85 267 1
85 336 1
85 372 1
85 397 1
85 457 1
85 505 1
85 571 1
86 26 1
86 80 1
86 131 1
86 176 1
86 203 1
86 268 1
86 305 1
86 373 1
86 398 1
86 458 1
86 506 1
86 572 1
87 27 1
87 81 1
87 132 1
87 177 1
87 220 1
87 269 1
87 322 1
87 374 1
87 399 1
87 459 1
87 507 1
87 573 1
88 28 1
88 82 1
88 133 1
88 178 1
88 237 1
88 270 1
88 291 1
88 375 1
88 400 1
88 460 1
88 508 1
88 574 1
89 29 1
89 83 1
89 134 1
89 179 1
89 206 1
89 271 1
89 308 1
89 376 1
89 401 1
89 461 1
89 509 1
89 575 1
90 30 1
90 84 1
90 135 1
90 180 1
90 223 1
90 272 1
90 325 1
90 377 1
90 402 1
90 462 1
90 510 1
90 576 1
91 31 1
91 85 1
91 136 1
91 181 1
91 240 1
91 273 1
91 294 1
91 378 1
91 403 1
91 463 1
91 511 1
91 529 1
92 32 1
92 86 1
92 137 1
92 182 1
92 209 1
92 274 1
92 311 1
92 379 1
92 404 1
92 464 1
92 512 1
92 530 1
93 33 1
93 87 1
93 138 1
93 183 1
93 226 1
93 275 1
93 328 1
93 380 1
93 405 1
93 465 1
93 513 1
93 531 1
94 34 1
94 88 1
94 139 1
94 184 1
94 195 1
94 276 1
94 297 1
94 381 1
94 406 1
94 466 1
94 514 1
94 532 1
95 35 1
95 89 1
95 140 1
95 185 1
95 212 1
95 277 1
95 314 1
95 382 1
95 407 1
95 467 1
95 515 1
95 533 1
96 36 1
96 90 1
96 141 1
96 186 1
96 229 1
96 278 1
96 331 1
96 383 1
96 408 1
96 468 1
96 516 1
96 534 1
97 39 1
97 85 1
97 139 1
97 190 1
97 235 1
97 246 1
97 295 1
97 348 1
97 432 1
97 457 1
97 517 1
97 565 1
98 40 1
98 86 1
98 140 1
98 191 1
98 236 1
98 263 1
98 296 1
98 365 1
98 385 1
98 458 1
98 518 1
98 566 1
99 41 1
99 87 1
99 141 1
99 192 1
99 237 1
99 280 1
99 297 1
99 382 1
99 386 1
99 459 1
99 519 1
99 567 1
100 42 1
100 88 1
100 142 1
100 145 1
100 238 1
100 249 1
100 298 1
100 351 1
100 387 1
100 460 1
100 520 1
100 568 1
101 43 1
101 89 1
101 143 1
101 146 1
101 239 1
101 266 1
101 299 1
101 368 1
101 388 1
101 461 1
101 521 1
101 569 1
102 44 1
102 90 1
102 144 1
102 147 1
102 240 1
102 283 1
102 300 1
102 337 1
102 389 1
102 462 1
102 522 1
102 570 1
103 45 1
103 91 1
103 97 1
103 148 1
103 193 1
103 252 1
103 301 1
103 354 1
103 390 1
103 463 1
103 523 1
103 571 1
104 46 1
104 92 1
104 98 1
104 149 1
104 194 1
104 269 1
104 302 1
104 371 1
104 391 1
104 464 1
104 524 1
104 572 1
105 47 1
105 93 1
105 99 1
105 150 1
105 195 1
105 286 1
105 303 1
105 340 1
105 392 1
105 465 1
105 525 1
105 573 1
106 48 1
106 94 1
106 100 1
106 151 1
106 196 1
106 255 1
106 304 1
106 357 1
106 393 1
106 466 1
106 526 1
106 574 1
107 1 1
107 95 1
107 101 1
107 152 1
107 197 1
107 272 1
107 305 1
107 374 1
107 394 1
107 467 1
107 527 1
107 575 1
108 2 1
108 96 1
108 102 1
108 153 1
108 198 1
108 241 1
108 306 1
108 343 1
108 395 1
108 468 1
108 528 1
108 576 1
109 3 1
109 49 1
109 103 1
109 154 1
109 199 1
109 258 1
109 307 1
109 360 1
109 396 1
109 469 1
109 481 1
109 529 1
110 4 1
110 50 1
110 104 1
110 155 1
110 200 1
110 275 1
110 308 1
110 377 1
110 397 1
110 470 1
110 482 1
110 530 1
111 5 1
111 51 1
111 105 1
111 156 1
111 201 1
111 244 1
111 309 1
111 346 1
111 398 1
111 471 1
111 483 1
111 531 1
112 6 1
112 52 1
112 106 1
112 157 1
112 202 1
112 261 1
112 310 1
112 363 1
112 399 1
112 472 1
112 484 1
112 532 1
113 7 1
113 53 1
113 107 1
113 158 1
113 203 1
113 278 1
113 311 1
113 380 1
113 400 1
113 473 1
113 485 1
113 533 1
114 8 1
114 54 1
114 108 1
114 159 1
114 204 1
114 247 1
114 312 1
114 349 1
114 401 1
114 474 1
114 486 1
114 534 1
115 9 1
115 55 1
115 109 1
115 160 1
115 205 1
115 264 1
115 313 1
115 366 1
115 402 1
115 475 1
115 487 1
115 535 1
116 10 1
116 56 1
116 110 1
116 161 1
116 206 1
116 281 1
116 314 1
116 383 1
116 403 1
116 476 1
116 488 1
116 536 1
117 11 1
117 57 1
117 111 1
117 162 1
117 207 1
117 250 1
117 315 1
117 352 1
117 404 1
117 477 1
117 489 1
117 537 1
118 12 1
118 58 1
118 112 1
118 163 1
118 208 1
118 267 1
118 316 1
118 369 1
118 405 1
118 478 1
118 490 1
118 538 1
119 13 1
119 59 1
119 113 1
119 164 1
119 209 1
119 284 1
119 317 1
119 338 1
119 406 1
119 479 1
119 491 1
119 539 1
120 14 1
120 60 1
120 114 1
120 165 1
120 210 1
120 253 1
120 318 1
120 355 1
120 407 1
120 480 1
120 492 1
120 540 1
121 15 1
121 61 1
121 115 1
121 166 1
121 211 1
121 270 1
121 319 1
121 372 1
121 408 1
121 433 1
121 493 1
121 541 1
122 16 1
122 62 1
122 116 1
122 167 1
122 212 1
122 287 1
122 320 1
122 341 1
122 409 1
122 434 1
122 494 1
122 542 1
123 17 1
123 63 1
123 117 1
123 168 1
123 213 1
123 256 1
123 321 1
123 358 1
123 410 1
123 435 1
123 495 1
123 543 1
124 18 1
124 64 1
124 118 1
124 169 1
124 214 1
124 273 1
124 322 1
124 375 1
124 411 1
124 436 1
124 496 1
124 544 1
125 19 1
125 65 1
125 119 1
125 170 1
125 215 1
125 242 1
125 323 1
125 344 1
125 412 1
125 437 1
125 497 1
125 545 1
126 20 1
126 66 1
126 120 1
126 171 1
126 216 1
126 259 1
126 324 1
126 361 1
126 413 1
126 438 1
126 498 1
126 546 1
127 21 1
127 67 1
127 121 1
127 172 1
127 217 1
127 276 1
127 325 1
127 378 1
127 414 1
127 439 1
127 499 1
127 547 1
128 22 1
128 68 1
128 122 1
128 173 1
128 218 1
128 245 1
128 326 1
128 347 1
128 415 1
128 440 1
128 500 1
128 548 1
129 23 1
129 69 1
129 123 1
129 174 1
129 219 1
129 262 1
129 327 1
129 364 1
129 416 1
129 441 1
129 501 1
129 549 1
130 24 1
130 70 1
130 124 1
130 175 1
130 220 1
130 279 1
130 328 1
130 381 1
130 417 1
130 442 1
130 502 1
130 550 1
131 25 1
131 71 1
131 125 1
131 176 1
131 221 1
131 248 1
131 329 1
131 350 1
131 418 1
131 443 1
131 503 1
131 551 1
132 26 1
132 72 1
132 126 1
132 177 1
132 222 1
132 265 1
132 330 1
132 367 1
132 419 1
132 444 1
132 504 1
132 552 1
133 27 1
133 73 1
133 127 1
133 178 1
133 223 1
133 282 1
133 331 1
133 384 1
133 420 1
133 445 1
133 505 1
133 553 1
134 28 1
134 74 1
134 128 1
134 179 1
134 224 1
134 251 1
134 332 1
134 353 1
134 421 1
134 446 1
134 506 1
134 554 1
135 29 1
135 75 1
135 129 1
135 180 1
135 225 1
135 268 1
135 333 1
135 370 1
135 422 1
135 447 1
135 507 1
135 555 1
136 30 1
136 76 1
136 130 1
136 181 1
136 226 1
136 285 1
136 334 1
136 339 1
136 423 1
136 448 1
136 508 1
136 556 1
137 31 1
137 77 1
137 131 1
137 182 1
137 227 1
137 254 1
137 335 1
137 356 1
137 424 1
137 449 1
137 509 1
137 557 1
138 32 1
138 78 1
138 132 1
138 183 1
138 228 1
138 271 1
138 336 1
138 373 1
138 425 1
138 450 1
138 510 1
138 558 1
139 33 1
139 79 1
139 133 1
139 184 1
139 229 1
139 288 1
139 289 1
139 342 1
139 426 1
139 451 1
139 511 1
139 559 1
140 34 1
140 80 1
140 134 1
140 185 1
140 230 1
140 257 1
140 290 1
140 359 1
140 427 1
140 452 1
140 512 1
140 560 1
141 35 1
141 81 1
141 135 1
141 186 1
141 231 1
141 274 1
141 291 1
141 376 1
141 428 1
141 453 1
141 513 1
141 561 1
142 36 1
142 82 1
142 136 1
142 187 1
142 232 1
142 243 1
142 292 1
142 345 1
142 429 1
142 454 1
142 514 1
142 562 1
143 37 1
143 83 1
143 137 1
143 188 1
143 233 1
143 260 1
143 293 1
143 362 1
143 430 1
143 455 1
143 515 1
143 563 1
144 38 1
144 84 1
144 138 1
144 189 1
144 234 1
144 277 1
144 294 1
144 379 1
144 431 1
144 456 1
144 516 1
144 564 1
