%%MatrixMarket matrix coordinate integer general
%
801 3204 9612
1 148 1
1 520 1
1 706 1
1 930 1
1 1104 1
1 1543 1
1 1677 1
1 1894 1
1 2392 1
1 2413 1
1 2791 1
1 3102 1
2 149 1
2 521 1
2 707 1
2 842 1
2 1105 1
2 1544 1
2 1678 1
2 1895 1
2 2393 1
2 2414 1
2 2792 1
2 3014 1
3 150 1
3 522 1
3 708 1
3 1021 1
3 1106 1
3 1545 1
3 1679 1
3 1896 1
3 2394 1
3 2415 1
3 2793 1
3 3193 1
4 151 1
4 523 1
4 709 1
4 933 1
4 1107 1
4 1546 1
4 1680 1
4 1897 1
4 2395 1
4 2416 1
4 2794 1
4 3105 1
5 152 1
5 524 1
5 710 1
5 845 1
5 1108 1
5 1547 1
5 1681 1
5 1898 1
5 2396 1
5 2417 1
5 2795 1
5 3017 1
6 153 1
6 525 1
6 711 1
6 1024 1
6 1109 1
6 1548 1
6 1682 1
6 1899 1
6 2397 1
6 2418 1
6 2796 1
6 3196 1
7 154 1
7 526 1
7 712 1
7 936 1
7 1110 1
7 1549 1
7 1683 1
7 1900 1
7 2398 1
7 2419 1
7 2797 1
7 3108 1
8 155 1
8 527 1
8 713 1
8 848 1
8 1111 1
8 1550 1
8 1684 1
8 1901 1
8 2399 1
8 2420 1
8 2798 1
8 3020 1
9 156 1
9 528 1
9 714 1
9 1027 1
9 1112 1
9 1551 1
9 1685 1
9 1902 1
9 2400 1
9 2421 1
9 2799 1
9 3199 1
10 157 1
10 529 1
10 715 1
10 939 1
10 1113 1
10 1552 1
10 1686 1
10 1903 1
10 2401 1
10 2422 1
10 2800 1
10 3111 1
11 158 1
11 530 1
11 716 1
11 851 1
11 1114 1
11 1553 1
11 1687 1
11 1904 1
11 2402 1
11 2423 1
11 2801 1
11 3023 1
12 159 1
12 531 1
12 717 1
12 1030 1
12 1115 1
12 1554 1
12 1688 1
12 1905 1
12 2403 1
12 2424 1
12 2802 1
12 3202 1
13 160 1
13 532 1
13 718 1
13 942 1
13 1116 1
13 1555 1
13 1689 1
13 1906 1
13 2137 1
13 2425 1
13 2803 1
13 3114 1
14 161 1
14 533 1
14 719 1
14 854 1
14 1117 1
14 1556 1
14 1690 1
14 1907 1
14 2138 1
14 2426 1
14 2804 1
14 3026 1
15 162 1
15 534 1
15 720 1
15 1033 1
15 1118 1
15 1557 1
15 1691 1
15 1908 1
15 2139 1
15 2427 1
15 2805 1
15 2938 1
16 163 1
16 268 1
16 721 1
16 945 1
16 1119 1
16 1558 1
16 1692 1
16 1909 1
16 2140 1
16 2428 1
16 2806 1
16 3117 1
17 164 1
17 269 1
17 722 1
17 857 1
17 1120 1
17 1559 1
17 1693 1
17 1910 1
17 2141 1
17 2429 1
17 2807 1
17 3029 1
18 165 1
18 270 1
18 723 1
18 1036 1
18 1121 1
18 1560 1
18 1694 1
18 1911 1
18 2142 1
18 2430 1
18 2808 1
18 2941 1
19 166 1
19 271 1
19 724 1
19 948 1
19 1122 1
19 1561 1
19 1695 1
19 1912 1
19 2143 1
19 2431 1
19 2809 1
19 3120 1
20 167 1
20 272 1
20 725 1
20 860 1
20 1123 1
20 1562 1
20 1696 1
20 1913 1
20 2144 1
20 2432 1
20 2810 1
20 3032 1
21 168 1
21 273 1
21 726 1
21 1039 1
21 1124 1
21 1563 1
21 1697 1
21 1914 1
21 2145 1
21 2433 1
21 2811 1
21 2944 1
22 169 1
22 274 1
22 727 1
22 951 1
22 1125 1
22 1564 1
22 1698 1
22 1915 1
22 2146 1
22 2434 1
22 2812 1
22 3123 1
23 170 1
23 275 1
23 728 1
23 863 1
23 1126 1
23 1565 1
23 1699 1
23 1916 1
23 2147 1
23 2435 1
23 2813 1
23 3035 1
24 171 1
24 276 1
24 729 1
24 1042 1
24 1127 1
24 1566 1
24 1700 1
24 1917 1
24 2148 1
24 2436 1
24 2814 1
24 2947 1
25 172 1
25 277 1
25 730 1
25 954 1
25 1128 1
25 1567 1
25 1701 1
25 1918 1
25 2149 1
25 2437 1
25 2815 1
25 3126 1
26 173 1
26 278 1
26 731 1
26 866 1
26 1129 1
26 1568 1
26 1702 1
26 1919 1
26 2150 1
26 2438 1
26 2816 1
26 3038 1
27 174 1
27 279 1
27 732 1
27 1045 1
27 1130 1
27 1569 1
27 1703 1
27 1920 1
27 2151 1
27 2439 1
27 2817 1
27 2950 1
28 175 1
28 280 1
28 733 1
28 957 1
28 1131 1
28 1570 1
28 1704 1
28 1921 1
28 2152 1
28 2440 1
28 2818 1
28 3129 1
29 176 1
29 281 1
29 734 1
29 869 1
29 1132 1
29 1571 1
29 1705 1
29 1922 1
29 2153 1
29 2441 1
29 2819 1
29 3041 1
30 177 1
30 282 1
30 735 1
30 1048 1
30 1133 1
30 1572 1
30 1706 1
30 1923 1
30 2154 1
30 2442 1
30 2820 1
30 2953 1
31 178 1
31 283 1
31 736 1
31 960 1
31 1134 1
31 1573 1
31 1707 1
31 1924 1
31 2155 1
31 2443 1
31 2821 1
31 3132 1
32 179 1
32 284 1
32 737 1
32 872 1
32 1135 1
32 1574 1
32 1708 1
32 1925 1
32 2156 1
32 2444 1
32 2822 1
32 3044 1
33 180 1
33 285 1
33 738 1
33 1051 1
33 1136 1
33 1575 1
33 1709 1
33 1926 1
33 2157 1
33 2445 1
33 2823 1
33 2956 1
34 181 1
34 286 1
34 739 1
34 963 1
34 1137 1
34 1576 1
34 1710 1
34 1927 1
34 2158 1
34 2446 1
34 2824 1
34 3135 1
35 182 1
35 287 1
35 740 1
35 875 1
35 1138 1
35 1577 1
35 1711 1
35 1928 1
35 2159 1
35 2447 1
35 2825 1
35 3047 1
36 183 1
36 288 1
36 741 1
36 1054 1
36 1139 1
36 1578 1
36 1712 1
36 1929 1
36 2160 1
36 2448 1
36 2826 1
36 2959 1
37 184 1
37 289 1
37 742 1
37 966 1
37 1140 1
37 1579 1
37 1713 1
37 1930 1
37 2161 1
37 2449 1
37 2827 1
37 3138 1
38 185 1
38 290 1
38 743 1
38 878 1
38 1141 1
38 1580 1
38 1714 1
38 1931 1
38 2162 1
38 2450 1
38 2828 1
38 3050 1
39 186 1
39 291 1
39 744 1
39 1057 1
39 1142 1
39 1581 1
39 1715 1
39 1932 1
39 2163 1
39 2451 1
39 2829 1
39 2962 1
40 187 1
40 292 1
40 745 1
40 969 1
40 1143 1
40 1582 1
40 1716 1
40 1933 1
40 2164 1
40 2452 1
40 2830 1
40 3141 1
41 188 1
41 293 1
41 746 1
41 881 1
41 1144 1
41 1583 1
41 1717 1
41 1934 1
41 2165 1
41 2453 1
41 2831 1
41 3053 1
42 189 1
42 294 1
42 747 1
42 1060 1
42 1145 1
42 1584 1
42 1718 1
42 1935 1
42 2166 1
42 2454 1
42 2832 1
42 2965 1
43 190 1
43 295 1
43 748 1
43 972 1
43 1146 1
43 1585 1
43 1719 1
43 1936 1
43 2167 1
43 2455 1
43 2833 1
43 3144 1
44 191 1
44 296 1
44 749 1
44 884 1
44 1147 1
44 1586 1
44 1720 1
44 1937 1
44 2168 1
44 2456 1
44 2834 1
44 3056 1
45 192 1
45 297 1
45 750 1
45 1063 1
45 1148 1
45 1587 1
45 1721 1
45 1938 1
45 2169 1
45 2457 1
45 2835 1
45 2968 1
46 193 1
46 298 1
46 751 1
46 975 1
46 1149 1
46 1588 1
46 1722 1
46 1939 1
46 2170 1
46 2458 1
46 2836 1
46 3147 1
47 194 1
47 299 1
47 752 1
47 887 1
47 1150 1
47 1589 1
47 1723 1
47 1940 1
47 2171 1
47 2459 1
47 2837 1
47 3059 1
48 195 1
48 300 1
48 753 1
48 1066 1
48 1151 1
48 1590 1
48 1724 1
48 1941 1
48 2172 1
48 2460 1
48 2838 1
48 2971 1
49 196 1
49 301 1
49 754 1
49 978 1
49 1152 1
49 1591 1
49 1725 1
49 1942 1
49 2173 1
49 2461 1
49 2839 1
49 3150 1
50 197 1
50 302 1
50 755 1
50 890 1
50 1153 1
50 1592 1
50 1726 1
50 1943 1
50 2174 1
50 2462 1
50 2840 1
50 3062 1
51 198 1
51 303 1
51 756 1
51 802 1
51 1154 1
51 1593 1
51 1727 1
51 1944 1
51 2175 1
51 2463 1
51 2841 1
51 2974 1
52 199 1
52 304 1
52 757 1
52 981 1
52 1155 1
52 1594 1
52 1728 1
52 1945 1
52 2176 1
52 2464 1
52 2842 1
52 3153 1
53 200 1
53 305 1
53 758 1
53 893 1
53 1156 1
53 1595 1
53 1729 1
53 1946 1
53 2177 1
53 2465 1
53 2843 1
53 3065 1
54 201 1
54 306 1
54 759 1
54 805 1
54 1157 1
54 1596 1
54 1730 1
54 1947 1
54 2178 1
54 2466 1
54 2844 1
54 2977 1
55 202 1
55 307 1
55 760 1
55 984 1
55 1158 1
55 1597 1
55 1731 1
55 1948 1
55 2179 1
55 2467 1
55 2845 1
55 3156 1
56 203 1
56 308 1
56 761 1
56 896 1
56 1159 1
56 1598 1
56 1732 1
56 1949 1
56 2180 1
56 2468 1
56 2846 1
56 3068 1
57 204 1
57 309 1
57 762 1
57 808 1
57 1160 1
57 1599 1
57 1733 1
57 1950 1
57 2181 1
57 2469 1
57 2847 1
57 2980 1
58 205 1
58 310 1
58 763 1
58 987 1
58 1161 1
58 1600 1
58 1734 1
58 1951 1
58 2182 1
58 2470 1
58 2848 1
58 3159 1
59 206 1
59 311 1
59 764 1
59 899 1
59 1162 1
59 1601 1
59 1735 1
59 1952 1
59 2183 1
59 2471 1
59 2849 1
59 3071 1
60 207 1
60 312 1
60 765 1
60 811 1
60 1163 1
60 1602 1
60 1736 1
60 1953 1
60 2184 1
60 2472 1
60 2850 1
60 2983 1
61 208 1
61 313 1
61 766 1
61 990 1
61 1164 1
61 1336 1
61 1737 1
61 1954 1
61 2185 1
61 2473 1
61 2851 1
61 3162 1
62 209 1
62 314 1
62 767 1
62 902 1
62 1165 1
62 1337 1
62 1738 1
62 1955 1
62 2186 1
62 2474 1
62 2852 1
62 3074 1
63 210 1
63 315 1
63 768 1
63 814 1
63 1166 1
63 1338 1
63 1739 1
63 1956 1
63 2187 1
63 2475 1
63 2853 1
63 2986 1
64 211 1
64 316 1
64 769 1
64 993 1
64 1167 1
64 1339 1
64 1740 1
64 1957 1
64 2188 1
64 2476 1
64 2854 1
64 3165 1
65 212 1
65 317 1
65 770 1
65 905 1
65 1168 1
65 1340 1
65 1741 1
65 1958 1
65 2189 1
65 2477 1
65 2855 1
65 3077 1
66 213 1
66 318 1
66 771 1
66 817 1
66 1169 1
66 1341 1
66 1742 1
66 1959 1
66 2190 1
66 2478 1
66 2856 1
66 2989 1
67 214 1
67 319 1
67 772 1
67 996 1
67 1170 1
67 1342 1
67 1743 1
67 1960 1
67 2191 1
67 2479 1
67 2857 1
67 3168 1
68 215 1
68 320 1
68 773 1
68 908 1
68 1171 1
68 1343 1
68 1744 1
68 1961 1
68 2192 1
68 2480 1
68 2858 1
68 3080 1
69 216 1
69 321 1
69 774 1
69 820 1
69 1172 1
69 1344 1
69 1745 1
69 1962 1
69 2193 1
69 2481 1
69 2859 1
69 2992 1
70 217 1
70 322 1
70 775 1
70 999 1
70 1173 1
70 1345 1
70 1746 1
70 1963 1
70 2194 1
70 2482 1
70 2860 1
70 3171 1
71 218 1
71 323 1
71 776 1
71 911 1
71 1174 1
71 1346 1
71 1747 1
71 1964 1
71 2195 1
71 2483 1
71 2861 1
71 3083 1
72 219 1
72 324 1
72 777 1
72 823 1
72 1175 1
72 1347 1
72 1748 1
72 1965 1
72 2196 1
72 2484 1
72 2862 1
72 2995 1
73 220 1
73 325 1
73 778 1
73 1002 1
73 1176 1
73 1348 1
73 1749 1
73 1966 1
73 2197 1
73 2485 1
73 2863 1
73 3174 1
74 221 1
74 326 1
74 779 1
74 914 1
74 1177 1
74 1349 1
74 1750 1
74 1967 1
74 2198 1
74 2486 1
74 2864 1
74 3086 1
75 222 1
75 327 1
75 780 1
75 826 1
75 1178 1
75 1350 1
75 1751 1
75 1968 1
75 2199 1
75 2487 1
75 2865 1
75 2998 1
76 223 1
76 328 1
76 781 1
76 1005 1
76 1179 1
76 1351 1
76 1752 1
76 1969 1
76 2200 1
76 2488 1
76 2866 1
76 3177 1
77 224 1
77 329 1
77 782 1
77 917 1
77 1180 1
77 1352 1
77 1753 1
77 1970 1
77 2201 1
77 2489 1
77 2867 1
77 3089 1
78 225 1
78 330 1
78 783 1
78 829 1
78 1181 1
78 1353 1
78 1754 1
78 1971 1
78 2202 1
78 2490 1
78 2868 1
78 3001 1
79 226 1
79 331 1
79 784 1
79 1008 1
79 1182 1
79 1354 1
79 1755 1
79 1972 1
79 2203 1
79 2491 1
79 2869 1
79 3180 1
80 227 1
80 332 1
80 785 1
80 920 1
80 1183 1
80 1355 1
80 1756 1
80 1973 1
80 2204 1
80 2492 1
80 2870 1
80 3092 1
81 228 1
81 333 1
81 786 1
81 832 1
81 1184 1
81 1356 1
81 1757 1
81 1974 1
81 2205 1
81 2493 1
81 2871 1
81 3004 1
82 229 1
82 334 1
82 787 1
82 1011 1
82 1185 1
82 1357 1
82 1758 1
82 1975 1
82 2206 1
82 2494 1
82 2872 1
82 3183 1
83 230 1
83 335 1
83 788 1
83 923 1
83 1186 1
83 1358 1
83 1759 1
83 1976 1
83 2207 1
83 2495 1
83 2873 1
83 3095 1
84 231 1
84 336 1
84 789 1
84 835 1
84 1187 1
84 1359 1
84 1760 1
84 1977 1
84 2208 1
84 2496 1
84 2874 1
84 3007 1
85 232 1
85 337 1
85 790 1
85 1014 1
85 1188 1
85 1360 1
85 1761 1
85 1978 1
85 2209 1
85 2497 1
85 2875 1
85 3186 1
86 233 1
86 338 1
86 791 1
86 926 1
86 1189 1
86 1361 1
86 1762 1
86 1979 1
86 2210 1
86 2498 1
86 2876 1
86 3098 1
87 234 1
87 339 1
87 792 1
87 838 1
87 1190 1
87 1362 1
87 1763 1
87 1980 1
87 2211 1
87 2499 1
87 2877 1
87 3010 1
88 235 1
88 340 1
88 793 1
88 1017 1
88 1191 1
88 1363 1
88 1764 1
88 1981 1
88 2212 1
88 2500 1
88 2878 1
88 3189 1
89 236 1
89 341 1
89 794 1
89 929 1
89 1192 1
89 1364 1
89 1765 1
89 1982 1
89 2213 1
89 2501 1
89 2879 1
89 3101 1
90 237 1
90 342 1
90 795 1
90 841 1
90 1193 1
90 1365 1
90 1766 1
90 1983 1
90 2214 1
90 2502 1
90 2880 1
90 3013 1
91 238 1
91 343 1
91 796 1
91 1020 1
91 1194 1
91 1366 1
91 1767 1
91 1984 1
91 2215 1
91 2503 1
91 2881 1
91 3192 1
92 239 1
92 344 1
92 797 1
92 932 1
92 1195 1
92 1367 1
92 1768 1
92 1985 1
92 2216 1
92 2504 1
92 2882 1
92 3104 1
93 240 1
93 345 1
93 798 1
93 844 1
93 1196 1
93 1368 1
93 1769 1
93 1986 1
93 2217 1
93 2505 1
93 2883 1
93 3016 1
94 241 1
94 346 1
94 799 1
94 1023 1
94 1197 1
94 1369 1
94 1770 1
94 1987 1
94 2218 1
94 2506 1
94 2884 1
94 3195 1
95 242 1
95 347 1
95 800 1
95 935 1
95 1198 1
95 1370 1
95 1771 1
95 1988 1
95 2219 1
95 2507 1
95 2885 1
95 3107 1
96 243 1
96 348 1
96 801 1
96 847 1
96 1199 1
96 1371 1
96 1772 1
96 1989 1
96 2220 1
96 2508 1
96 2886 1
96 3019 1
97 244 1
97 349 1
97 535 1
97 1026 1
97 1200 1
97 1372 1
97 1773 1
97 1990 1
97 2221 1
97 2509 1
97 2887 1
97 3198 1
98 245 1
98 350 1
98 536 1
98 938 1
98 1201 1
98 1373 1
98 1774 1
98 1991 1
98 2222 1
98 2510 1
98 2888 1
98 3110 1
99 246 1
99 351 1
99 537 1
99 850 1
99 1202 1
99 1374 1
99 1775 1
99 1992 1
99 2223 1
99 2511 1
99 2889 1
99 3022 1
100 247 1
100 352 1
100 538 1
100 1029 1
100 1203 1
100 1375 1
100 1776 1
100 1993 1
100 2224 1
100 2512 1
100 2890 1
100 3201 1
101 248 1
101 353 1
101 539 1
101 941 1
101 1204 1
101 1376 1
101 1777 1
101 1994 1
101 2225 1
101 2513 1
101 2891 1
101 3113 1
102 249 1
102 354 1
102 540 1
102 853 1
102 1205 1
102 1377 1
102 1778 1
102 1995 1
102 2226 1
102 2514 1
102 2892 1
102 3025 1
103 250 1
103 355 1
103 541 1
103 1032 1
103 1206 1
103 1378 1
103 1779 1
103 1996 1
103 2227 1
103 2515 1
103 2893 1
103 3204 1
104 251 1
104 356 1
104 542 1
104 944 1
104 1207 1
104 1379 1
104 1780 1
104 1997 1
104 2228 1
104 2516 1
104 2894 1
104 3116 1
105 252 1
105 357 1
105 543 1
105 856 1
105 1208 1
105 1380 1
105 1781 1
105 1998 1
105 2229 1
105 2517 1
105 2895 1
105 3028 1
106 253 1
106 358 1
106 544 1
106 1035 1
106 1209 1
106 1381 1
106 1782 1
106 1999 1
106 2230 1
106 2518 1
106 2896 1
106 2940 1
107 254 1
107 359 1
107 545 1
107 947 1
107 1210 1
107 1382 1
107 1783 1
107 2000 1
107 2231 1
107 2519 1
107 2897 1
107 3119 1
108 255 1
108 360 1
108 546 1
108 859 1
108 1211 1
108 1383 1
108 1784 1
108 2001 1
108 2232 1
108 2520 1
108 2898 1
108 3031 1
109 256 1
109 361 1
109 547 1
109 1038 1
109 1212 1
109 1384 1
109 1785 1
109 2002 1
109 2233 1
109 2521 1
109 2899 1
109 2943 1
110 257 1
110 362 1
110 548 1
110 950 1
110 1213 1
110 1385 1
110 1786 1
110 2003 1
110 2234 1
110 2522 1
110 2900 1
110 3122 1
111 258 1
111 363 1
111 549 1
111 862 1
111 1214 1
111 1386 1
111 1787 1
111 2004 1
111 2235 1
111 2523 1
111 2901 1
111 3034 1
112 259 1
112 364 1
112 550 1
112 1041 1
112 1215 1
112 1387 1
112 1788 1
112 2005 1
112 2236 1
112 2524 1
112 2902 1
112 2946 1
113 260 1
113 365 1
113 551 1
113 953 1
113 1216 1
113 1388 1
113 1789 1
113 2006 1
113 2237 1
113 2525 1
113 2903 1
113 3125 1
114 261 1
114 366 1
114 552 1
114 865 1
114 1217 1
114 1389 1
114 1790 1
114 2007 1
114 2238 1
114 2526 1
114 2904 1
114 3037 1
115 262 1
115 367 1
115 553 1
115 1044 1
115 1218 1
115 1390 1
115 1791 1
115 2008 1
115 2239 1
115 2527 1
115 2905 1
115 2949 1
116 263 1
116 368 1
116 554 1
116 956 1
116 1219 1
116 1391 1
116 1792 1
116 2009 1
116 2240 1
116 2528 1
116 2906 1
116 3128 1
117 264 1
117 369 1
117 555 1
117 868 1
117 1220 1
117 1392 1
117 1793 1
117 2010 1
117 2241 1
117 2529 1
117 2907 1
117 3040 1
118 265 1
118 370 1
118 556 1
118 1047 1
118 1221 1
118 1393 1
118 1794 1
118 2011 1
118 2242 1
118 2530 1
118 2908 1
118 2952 1
119 266 1
119 371 1
119 557 1
119 959 1
119 1222 1
119 1394 1
119 1795 1
119 2012 1
119 2243 1
119 2531 1
119 2909 1
119 3131 1
120 267 1
120 372 1
120 558 1
120 871 1
120 1223 1
120 1395 1
120 1796 1
120 2013 1
120 2244 1
120 2532 1
120 2910 1
120 3043 1
121 1 1
121 373 1
121 559 1
121 1050 1
121 1224 1
121 1396 1
121 1797 1
121 2014 1
121 2245 1
121 2533 1
121 2911 1
121 2955 1
122 2 1
122 374 1
122 560 1
122 962 1
122 1225 1
122 1397 1
122 1798 1
122 2015 1
122 2246 1
122 2534 1
122 2912 1
122 3134 1
123 3 1
123 375 1
123 561 1
123 874 1
123 1226 1
123 1398 1
123 1799 1
123 2016 1
123 2247 1
123 2535 1
123 2913 1
123 3046 1
124 4 1
124 376 1
124 562 1
124 1053 1
124 1227 1
124 1399 1
124 1800 1
124 2017 1
124 2248 1
124 2536 1
124 2914 1
124 2958 1
125 5 1
125 377 1
125 563 1
125 965 1
125 1228 1
125 1400 1
125 1801 1
125 2018 1
125 2249 1
125 2537 1
125 2915 1
125 3137 1
126 6 1
126 378 1
126 564 1
126 877 1
126 1229 1
126 1401 1
126 1802 1
126 2019 1
126 2250 1
126 2538 1
126 2916 1
126 3049 1
127 7 1
127 379 1
127 565 1
127 1056 1
127 1230 1
127 1402 1
127 1803 1
127 2020 1
127 2251 1
127 2539 1
127 2917 1
127 2961 1
128 8 1
128 380 1
128 566 1
128 968 1
128 1231 1
128 1403 1
128 1804 1
128 2021 1
128 2252 1
128 2540 1
128 2918 1
128 3140 1
129 9 1
129 381 1
129 567 1
129 880 1
129 1232 1
129 1404 1
129 1805 1
129 2022 1
129 2253 1
129 2541 1
129 2919 1
129 3052 1
130 10 1
130 382 1
130 568 1
130 1059 1
130 1233 1
130 1405 1
130 1806 1
130 2023 1
130 2254 1
130 2542 1
130 2920 1
130 2964 1
131 11 1
131 383 1
131 569 1
131 971 1
131 1234 1
131 1406 1
131 1807 1
131 2024 1
131 2255 1
131 2543 1
131 2921 1
131 3143 1
132 12 1
132 384 1
132 570 1
132 883 1
132 1235 1
132 1407 1
132 1808 1
132 2025 1
132 2256 1
132 2544 1
132 2922 1
132 3055 1
133 13 1
133 385 1
133 571 1
133 1062 1
133 1236 1
133 1408 1
133 1809 1
133 2026 1
133 2257 1
133 2545 1
133 2923 1
133 2967 1
134 14 1
134 386 1
134 572 1
134 974 1
134 1237 1
134 1409 1
134 1810 1
134 2027 1
134 2258 1
134 2546 1
134 2924 1
134 3146 1
135 15 1
135 387 1
135 573 1
135 886 1
135 1238 1
135 1410 1
135 1811 1
135 2028 1
135 2259 1
135 2547 1
135 2925 1
135 3058 1
136 16 1
136 388 1
136 574 1
136 1065 1
136 1239 1
136 1411 1
136 1812 1
136 2029 1
136 2260 1
136 2548 1
136 2926 1
136 2970 1
137 17 1
137 389 1
137 575 1
137 977 1
137 1240 1
137 1412 1
137 1813 1
137 2030 1
137 2261 1
137 2549 1
137 2927 1
137 3149 1
138 18 1
138 390 1
138 576 1
138 889 1
138 1241 1
138 1413 1
138 1814 1
138 2031 1
138 2262 1
138 2550 1
138 2928 1
138 3061 1
139 19 1
139 391 1
139 577 1
139 1068 1
139 1242 1
139 1414 1
139 1815 1
139 2032 1
139 2263 1
139 2551 1
139 2929 1
139 2973 1
140 20 1
140 392 1
140 578 1
140 980 1
140 1243 1
140 1415 1
140 1816 1
140 2033 1
140 2264 1
140 2552 1
140 2930 1
140 3152 1
141 21 1
141 393 1
141 579 1
141 892 1
141 1244 1
141 1416 1
141 1817 1
141 2034 1
141 2265 1
141 2553 1
141 2931 1
141 3064 1
142 22 1
142 394 1
142 580 1
142 804 1
142 1245 1
142 1417 1
142 1818 1
142 2035 1
142 2266 1
142 2554 1
142 2932 1
142 2976 1
143 23 1
143 395 1
143 581 1
143 983 1
143 1246 1
143 1418 1
143 1819 1
143 2036 1
143 2267 1
143 2555 1
143 2933 1
143 3155 1
144 24 1
144 396 1
144 582 1
144 895 1
144 1247 1
144 1419 1
144 1820 1
144 2037 1
144 2268 1
144 2556 1
144 2934 1
144 3067 1
145 25 1
145 397 1
145 583 1
145 807 1
145 1248 1
145 1420 1
145 1821 1
145 2038 1
145 2269 1
145 2557 1
145 2935 1
145 2979 1
146 26 1
146 398 1
146 584 1
146 986 1
146 1249 1
146 1421 1
146 1822 1
146 2039 1
146 2270 1
146 2558 1
146 2936 1
146 3158 1
147 27 1
147 399 1
147 585 1
147 898 1
147 1250 1
147 1422 1
147 1823 1
147 2040 1
147 2271 1
147 2559 1
147 2937 1
147 3070 1
148 28 1
148 400 1
148 586 1
148 810 1
148 1251 1
148 1423 1
148 1824 1
148 2041 1
148 2272 1
148 2560 1
148 2671 1
148 2982 1
149 29 1
149 401 1
149 587 1
149 989 1
149 1252 1
149 1424 1
149 1825 1
149 2042 1
149 2273 1
149 2561 1
149 2672 1
149 3161 1
150 30 1
150 402 1
150 588 1
150 901 1
150 1253 1
150 1425 1
150 1826 1
150 2043 1
150 2274 1
150 2562 1
150 2673 1
150 3073 1
151 31 1
151 403 1
151 589 1
151 813 1
151 1254 1
151 1426 1
151 1827 1
151 2044 1
151 2275 1
151 2563 1
151 2674 1
151 2985 1
152 32 1
152 404 1
152 590 1
152 992 1
152 1255 1
152 1427 1
152 1828 1
152 2045 1
152 2276 1
152 2564 1
152 2675 1
152 3164 1
153 33 1
153 405 1
153 591 1
153 904 1
153 1256 1
153 1428 1
153 1829 1
153 2046 1
153 2277 1
153 2565 1
153 2676 1
153 3076 1
154 34 1
154 406 1
154 592 1
154 816 1
154 1257 1
154 1429 1
154 1830 1
154 2047 1
154 2278 1
154 2566 1
154 2677 1
154 2988 1
155 35 1
155 407 1
155 593 1
155 995 1
155 1258 1
155 1430 1
155 1831 1
155 2048 1
155 2279 1
155 2567 1
155 2678 1
155 3167 1
156 36 1
156 408 1
156 594 1
156 907 1
156 1259 1
156 1431 1
156 1832 1
156 2049 1
156 2280 1
156 2568 1
156 2679 1
156 3079 1
157 37 1
157 409 1
157 595 1
157 819 1
157 1260 1
157 1432 1
157 1833 1
157 2050 1
157 2281 1
157 2569 1
157 2680 1
157 2991 1
158 38 1
158 410 1
158 596 1
158 998 1
158 1261 1
158 1433 1
158 1834 1
158 2051 1
158 2282 1
158 2570 1
158 2681 1
158 3170 1
159 39 1
159 411 1
159 597 1
159 910 1
159 1262 1
159 1434 1
159 1835 1
159 2052 1
159 2283 1
159 2571 1
159 2682 1
159 3082 1
160 40 1
160 412 1
160 598 1
160 822 1
160 1263 1
160 1435 1
160 1836 1
160 2053 1
160 2284 1
160 2572 1
160 2683 1
160 2994 1
161 41 1
161 413 1
161 599 1
161 1001 1
161 1264 1
161 1436 1
161 1837 1
161 2054 1
161 2285 1
161 2573 1
161 2684 1
161 3173 1
162 42 1
162 414 1
162 600 1
162 913 1
162 1265 1
162 1437 1
162 1838 1
162 2055 1
162 2286 1
162 2574 1
162 2685 1
162 3085 1
163 43 1
163 415 1
163 601 1
163 825 1
163 1266 1
163 1438 1
163 1839 1
163 2056 1
163 2287 1
163 2575 1
163 2686 1
163 2997 1
164 44 1
164 416 1
164 602 1
164 1004 1
164 1267 1
164 1439 1
164 1840 1
164 2057 1
164 2288 1
164 2576 1
164 2687 1
164 3176 1
165 45 1
165 417 1
165 603 1
165 916 1
165 1268 1
165 1440 1
165 1841 1
165 2058 1
165 2289 1
165 2577 1
165 2688 1
165 3088 1
166 46 1
166 418 1
166 604 1
166 828 1
166 1269 1
166 1441 1
166 1842 1
166 2059 1
166 2290 1
166 2578 1
166 2689 1
166 3000 1
167 47 1
167 419 1
167 605 1
167 1007 1
167 1270 1
167 1442 1
167 1843 1
167 2060 1
167 2291 1
167 2579 1
167 2690 1
167 3179 1
168 48 1
168 420 1
168 606 1
168 919 1
168 1271 1
168 1443 1
168 1844 1
168 2061 1
168 2292 1
168 2580 1
168 2691 1
168 3091 1
169 49 1
169 421 1
169 607 1
169 831 1
169 1272 1
169 1444 1
169 1845 1
169 2062 1
169 2293 1
169 2581 1
169 2692 1
169 3003 1
170 50 1
170 422 1
170 608 1
170 1010 1
170 1273 1
170 1445 1
170 1846 1
170 2063 1
170 2294 1
170 2582 1
170 2693 1
170 3182 1
171 51 1
171 423 1
171 609 1
171 922 1
171 1274 1
171 1446 1
171 1847 1
171 2064 1
171 2295 1
171 2583 1
171 2694 1
171 3094 1
172 52 1
172 424 1
172 610 1
172 834 1
172 1275 1
172 1447 1
172 1848 1
172 2065 1
172 2296 1
172 2584 1
172 2695 1
172 3006 1
173 53 1
173 425 1
173 611 1
173 1013 1
173 1276 1
173 1448 1
173 1849 1
173 2066 1
173 2297 1
173 2585 1
173 2696 1
173 3185 1
174 54 1
174 426 1
174 612 1
174 925 1
174 1277 1
174 1449 1
174 1850 1
174 2067 1
174 2298 1
174 2586 1
174 2697 1
174 3097 1
175 55 1
175 427 1
175 613 1
175 837 1
175 1278 1
175 1450 1
175 1851 1
175 2068 1
175 2299 1
175 2587 1
175 2698 1
175 3009 1
176 56 1
176 428 1
176 614 1
176 1016 1
176 1279 1
176 1451 1
176 1852 1
176 2069 1
176 2300 1
176 2588 1
176 2699 1
176 3188 1
177 57 1
177 429 1
177 615 1
177 928 1
177 1280 1
177 1452 1
177 1853 1
177 2070 1
177 2301 1
177 2589 1
177 2700 1
177 3100 1
178 58 1
178 430 1
178 616 1
178 840 1
178 1281 1
178 1453 1
178 1854 1
178 2071 1
178 2302 1
178 2590 1
178 2701 1
178 3012 1
179 59 1
179 431 1
179 617 1
179 1019 1
179 1282 1
179 1454 1
179 1855 1
179 2072 1
179 2303 1
179 2591 1
179 2702 1
179 3191 1
180 60 1
180 432 1
180 618 1
180 931 1
180 1283 1
180 1455 1
180 1856 1
180 2073 1
180 2304 1
180 2592 1
180 2703 1
180 3103 1
181 61 1
181 433 1
181 619 1
181 843 1
181 1284 1
181 1456 1
181 1857 1
181 2074 1
181 2305 1
181 2593 1
181 2704 1
181 3015 1
182 62 1
182 434 1
182 620 1
182 1022 1
182 1285 1
182 1457 1
182 1858 1
182 2075 1
182 2306 1
182 2594 1
182 2705 1
182 3194 1
183 63 1
183 435 1
183 621 1
183 934 1
183 1286 1
183 1458 1
183 1859 1
183 2076 1
183 2307 1
183 2595 1
183 2706 1
183 3106 1
184 64 1
184 436 1
184 622 1
184 846 1
184 1287 1
184 1459 1
184 1860 1
184 2077 1
184 2308 1
184 2596 1
184 2707 1
184 3018 1
185 65 1
185 437 1
185 623 1
185 1025 1
185 1288 1
185 1460 1
185 1861 1
185 2078 1
185 2309 1
185 2597 1
185 2708 1
185 3197 1
186 66 1
186 438 1
186 624 1
186 937 1
186 1289 1
186 1461 1
186 1862 1
186 2079 1
186 2310 1
186 2598 1
186 2709 1
186 3109 1
187 67 1
187 439 1
187 625 1
187 849 1
187 1290 1
187 1462 1
187 1863 1
187 2080 1
187 2311 1
187 2599 1
187 2710 1
187 3021 1
188 68 1
188 440 1
188 626 1
188 1028 1
188 1291 1
188 1463 1
188 1864 1
188 2081 1
188 2312 1
188 2600 1
188 2711 1
188 3200 1
189 69 1
189 441 1
189 627 1
189 940 1
189 1292 1
189 1464 1
189 1865 1
189 2082 1
189 2313 1
189 2601 1
189 2712 1
189 3112 1
190 70 1
190 442 1
190 628 1
190 852 1
190 1293 1
190 1465 1
190 1866 1
190 2083 1
190 2314 1
190 2602 1
190 2713 1
190 3024 1
191 71 1
191 443 1
191 629 1
191 1031 1
191 1294 1
191 1466 1
191 1867 1
191 2084 1
191 2315 1
191 2603 1
191 2714 1
191 3203 1
192 72 1
192 444 1
192 630 1
192 943 1
192 1295 1
192 1467 1
192 1868 1
192 2085 1
192 2316 1
192 2604 1
192 2715 1
192 3115 1
193 73 1
193 445 1
193 631 1
193 855 1
193 1296 1
193 1468 1
193 1869 1
193 2086 1
193 2317 1
193 2605 1
193 2716 1
193 3027 1
194 74 1
194 446 1
194 632 1
194 1034 1
194 1297 1
194 1469 1
194 1603 1
194 2087 1
194 2318 1
194 2606 1
194 2717 1
194 2939 1
195 75 1
195 447 1
195 633 1
195 946 1
195 1298 1
195 1470 1
195 1604 1
195 2088 1
195 2319 1
195 2607 1
195 2718 1
195 3118 1
196 76 1
196 448 1
196 634 1
196 858 1
196 1299 1
196 1471 1
196 1605 1
196 2089 1
196 2320 1
196 2608 1
196 2719 1
196 3030 1
197 77 1
197 449 1
197 635 1
197 1037 1
197 1300 1
197 1472 1
197 1606 1
197 2090 1
197 2321 1
197 2609 1
197 2720 1
197 2942 1
198 78 1
198 450 1
198 636 1
198 949 1
198 1301 1
198 1473 1
198 1607 1
198 2091 1
198 2322 1
198 2610 1
198 2721 1
198 3121 1
199 79 1
199 451 1
199 637 1
199 861 1
199 1302 1
199 1474 1
199 1608 1
199 2092 1
199 2323 1
199 2611 1
199 2722 1
199 3033 1
200 80 1
200 452 1
200 638 1
200 1040 1
200 1303 1
200 1475 1
200 1609 1
200 2093 1
200 2324 1
200 2612 1
200 2723 1
200 2945 1
201 81 1
201 453 1
201 639 1
201 952 1
201 1304 1
201 1476 1
201 1610 1
201 2094 1
201 2325 1
201 2613 1
201 2724 1
201 3124 1
202 82 1
202 454 1
202 640 1
202 864 1
202 1305 1
202 1477 1
202 1611 1
202 2095 1
202 2326 1
202 2614 1
202 2725 1
202 3036 1
203 83 1
203 455 1
203 641 1
203 1043 1
203 1306 1
203 1478 1
203 1612 1
203 2096 1
203 2327 1
203 2615 1
203 2726 1
203 2948 1
204 84 1
204 456 1
204 642 1
204 955 1
204 1307 1
204 1479 1
204 1613 1
204 2097 1
204 2328 1
204 2616 1
204 2727 1
204 3127 1
205 85 1
205 457 1
205 643 1
205 867 1
205 1308 1
205 1480 1
205 1614 1
205 2098 1
205 2329 1
205 2617 1
205 2728 1
205 3039 1
206 86 1
206 458 1
206 644 1
206 1046 1
206 1309 1
206 1481 1
206 1615 1
206 2099 1
206 2330 1
206 2618 1
206 2729 1
206 2951 1
207 87 1
207 459 1
207 645 1
207 958 1
207 1310 1
207 1482 1
207 1616 1
207 2100 1
207 2331 1
207 2619 1
207 2730 1
207 3130 1
208 88 1
208 460 1
208 646 1
208 870 1
208 1311 1
208 1483 1
208 1617 1
208 2101 1
208 2332 1
208 2620 1
208 2731 1
208 3042 1
209 89 1
209 461 1
209 647 1
209 1049 1
209 1312 1
209 1484 1
209 1618 1
209 2102 1
209 2333 1
209 2621 1
209 2732 1
209 2954 1
210 90 1
210 462 1
210 648 1
210 961 1
210 1313 1
210 1485 1
210 1619 1
210 2103 1
210 2334 1
210 2622 1
210 2733 1
210 3133 1
211 91 1
211 463 1
211 649 1
211 873 1
211 1314 1
211 1486 1
211 1620 1
211 2104 1
211 2335 1
211 2623 1
211 2734 1
211 3045 1
212 92 1
212 464 1
212 650 1
212 1052 1
212 1315 1
212 1487 1
212 1621 1
212 2105 1
212 2336 1
212 2624 1
212 2735 1
212 2957 1
213 93 1
213 465 1
213 651 1
213 964 1
213 1316 1
213 1488 1
213 1622 1
213 2106 1
213 2337 1
213 2625 1
213 2736 1
213 3136 1
214 94 1
214 466 1
214 652 1
214 876 1
214 1317 1
214 1489 1
214 1623 1
214 2107 1
214 2338 1
214 2626 1
214 2737 1
214 3048 1
215 95 1
215 467 1
215 653 1
215 1055 1
215 1318 1
215 1490 1
215 1624 1
215 2108 1
215 2339 1
215 2627 1
215 2738 1
215 2960 1
216 96 1
216 468 1
216 654 1
216 967 1
216 1319 1
216 1491 1
216 1625 1
216 2109 1
216 2340 1
216 2628 1
216 2739 1
216 3139 1
217 97 1
217 469 1
217 655 1
217 879 1
217 1320 1
217 1492 1
217 1626 1
217 2110 1
217 2341 1
217 2629 1
217 2740 1
217 3051 1
218 98 1
218 470 1
218 656 1
218 1058 1
218 1321 1
218 1493 1
218 1627 1
218 2111 1
218 2342 1
218 2630 1
218 2741 1
218 2963 1
219 99 1
219 471 1
219 657 1
219 970 1
219 1322 1
219 1494 1
219 1628 1
219 2112 1
219 2343 1
219 2631 1
219 2742 1
219 3142 1
220 100 1
220 472 1
220 658 1
220 882 1
220 1323 1
220 1495 1
220 1629 1
220 2113 1
220 2344 1
220 2632 1
220 2743 1
220 3054 1
221 101 1
221 473 1
221 659 1
221 1061 1
221 1324 1
221 1496 1
221 1630 1
221 2114 1
221 2345 1
221 2633 1
221 2744 1
221 2966 1
222 102 1
222 474 1
222 660 1
222 973 1
222 1325 1
222 1497 1
222 1631 1
222 2115 1
222 2346 1
222 2634 1
222 2745 1
222 3145 1
223 103 1
223 475 1
223 661 1
223 885 1
223 1326 1
223 1498 1
223 1632 1
223 2116 1
223 2347 1
223 2635 1
223 2746 1
223 3057 1
224 104 1
224 476 1
224 662 1
224 1064 1
224 1327 1
224 1499 1
224 1633 1
224 2117 1
224 2348 1
224 2636 1
224 2747 1
224 2969 1
225 105 1
225 477 1
225 663 1
225 976 1
225 1328 1
225 1500 1
225 1634 1
225 2118 1
225 2349 1
225 2637 1
225 2748 1
225 3148 1
226 106 1
226 478 1
226 664 1
226 888 1
226 1329 1
226 1501 1
226 1635 1
226 2119 1
226 2350 1
226 2638 1
226 2749 1
226 3060 1
227 107 1
227 479 1
227 665 1
227 1067 1
227 1330 1
227 1502 1
227 1636 1
227 2120 1
227 2351 1
227 2639 1
227 2750 1
227 2972 1
228 108 1
228 480 1
228 666 1
228 979 1
228 1331 1
228 1503 1
228 1637 1
228 2121 1
228 2352 1
228 2640 1
228 2751 1
228 3151 1
229 109 1
229 481 1
229 667 1
229 891 1
229 1332 1
229 1504 1
229 1638 1
229 2122 1
229 2353 1
229 2641 1
229 2752 1
229 3063 1
230 110 1
230 482 1
230 668 1
230 803 1
230 1333 1
230 1505 1
230 1639 1
230 2123 1
230 2354 1
230 2642 1
230 2753 1
230 2975 1
231 111 1
231 483 1
231 669 1
231 982 1
231 1334 1
231 1506 1
231 1640 1
231 2124 1
231 2355 1
231 2643 1
231 2754 1
231 3154 1
232 112 1
232 484 1
232 670 1
232 894 1
232 1335 1
232 1507 1
232 1641 1
232 2125 1
232 2356 1
232 2644 1
232 2755 1
232 3066 1
233 113 1
233 485 1
233 671 1
233 806 1
233 1069 1
233 1508 1
233 1642 1
233 2126 1
233 2357 1
233 2645 1
233 2756 1
233 2978 1
234 114 1
234 486 1
234 672 1
234 985 1
234 1070 1
234 1509 1
234 1643 1
234 2127 1
234 2358 1
234 2646 1
234 2757 1
234 3157 1
235 115 1
235 487 1
235 673 1
235 897 1
235 1071 1
235 1510 1
235 1644 1
235 2128 1
235 2359 1
235 2647 1
235 2758 1
235 3069 1
236 116 1
236 488 1
236 674 1
236 809 1
236 1072 1
236 1511 1
236 1645 1
236 2129 1
236 2360 1
236 2648 1
236 2759 1
236 2981 1
237 117 1
237 489 1
237 675 1
237 988 1
237 1073 1
237 1512 1
237 1646 1
237 2130 1
237 2361 1
237 2649 1
237 2760 1
237 3160 1
238 118 1
238 490 1
238 676 1
238 900 1
238 1074 1
238 1513 1
238 1647 1
238 2131 1
238 2362 1
238 2650 1
238 2761 1
238 3072 1
239 119 1
239 491 1
239 677 1
239 812 1
239 1075 1
239 1514 1
239 1648 1
239 2132 1
239 2363 1
239 2651 1
239 2762 1
239 2984 1
240 120 1
240 492 1
240 678 1
240 991 1
240 1076 1
240 1515 1
240 1649 1
240 2133 1
240 2364 1
240 2652 1
240 2763 1
240 3163 1
241 121 1
241 493 1
241 679 1
241 903 1
241 1077 1
241 1516 1
241 1650 1
241 2134 1
241 2365 1
241 2653 1
241 2764 1
241 3075 1
242 122 1
242 494 1
242 680 1
242 815 1
242 1078 1
242 1517 1
242 1651 1
242 2135 1
242 2366 1
242 2654 1
242 2765 1
242 2987 1
243 123 1
243 495 1
243 681 1
243 994 1
243 1079 1
243 1518 1
243 1652 1
243 2136 1
243 2367 1
243 2655 1
243 2766 1
243 3166 1
244 124 1
244 496 1
244 682 1
244 906 1
244 1080 1
244 1519 1
244 1653 1
244 1870 1
244 2368 1
244 2656 1
244 2767 1
244 3078 1
245 125 1
245 497 1
245 683 1
245 818 1
245 1081 1
245 1520 1
245 1654 1
245 1871 1
245 2369 1
245 2657 1
245 2768 1
245 2990 1
246 126 1
246 498 1
246 684 1
246 997 1
246 1082 1
246 1521 1
246 1655 1
246 1872 1
246 2370 1
246 2658 1
246 2769 1
246 3169 1
247 127 1
247 499 1
247 685 1
247 909 1
247 1083 1
247 1522 1
247 1656 1
247 1873 1
247 2371 1
247 2659 1
247 2770 1
247 3081 1
248 128 1
248 500 1
248 686 1
248 821 1
248 1084 1
248 1523 1
248 1657 1
248 1874 1
248 2372 1
248 2660 1
248 2771 1
248 2993 1
249 129 1
249 501 1
249 687 1
249 1000 1
249 1085 1
249 1524 1
249 1658 1
249 1875 1
249 2373 1
249 2661 1
249 2772 1
249 3172 1
250 130 1
250 502 1
250 688 1
250 912 1
250 1086 1
250 1525 1
250 1659 1
250 1876 1
250 2374 1
250 2662 1
250 2773 1
250 3084 1
251 131 1
251 503 1
251 689 1
251 824 1
251 1087 1
251 1526 1
251 1660 1
251 1877 1
251 2375 1
251 2663 1
251 2774 1
251 2996 1
252 132 1
252 504 1
252 690 1
252 1003 1
252 1088 1
252 1527 1
252 1661 1
252 1878 1
252 2376 1
252 2664 1
252 2775 1
252 3175 1
253 133 1
253 505 1
253 691 1
253 915 1
253 1089 1
253 1528 1
253 1662 1
253 1879 1
253 2377 1
253 2665 1
253 2776 1
253 3087 1
254 134 1
254 506 1
254 692 1
254 827 1
254 1090 1
254 1529 1
254 1663 1
254 1880 1
254 2378 1
254 2666 1
254 2777 1
254 2999 1
255 135 1
255 507 1
255 693 1
255 1006 1
255 1091 1
255 1530 1
255 1664 1
255 1881 1
255 2379 1
255 2667 1
255 2778 1
255 3178 1
256 136 1
256 508 1
256 694 1
256 918 1
256 1092 1
256 1531 1
256 1665 1
256 1882 1
256 2380 1
256 2668 1
256 2779 1
256 3090 1
257 137 1
257 509 1
257 695 1
257 830 1
257 1093 1
257 1532 1
257 1666 1
257 1883 1
257 2381 1
257 2669 1
257 2780 1
257 3002 1
258 138 1
258 510 1
258 696 1
258 1009 1
258 1094 1
258 1533 1
258 1667 1
258 1884 1
258 2382 1
258 2670 1
258 2781 1
258 3181 1
259 139 1
259 511 1
259 697 1
259 921 1
259 1095 1
259 1534 1
259 1668 1
259 1885 1
259 2383 1
259 2404 1
259 2782 1
259 3093 1
260 140 1
260 512 1
260 698 1
260 833 1
260 1096 1
260 1535 1
260 1669 1
260 1886 1
260 2384 1
260 2405 1
260 2783 1
260 3005 1
261 141 1
261 513 1
261 699 1
261 1012 1
261 1097 1
261 1536 1
261 1670 1
261 1887 1
261 2385 1
261 2406 1
261 2784 1
261 3184 1
262 142 1
262 514 1
262 700 1
262 924 1
262 1098 1
262 1537 1
262 1671 1
262 1888 1
262 2386 1
262 2407 1
262 2785 1
262 3096 1
263 143 1
263 515 1
263 701 1
263 836 1
263 1099 1
263 1538 1
263 1672 1
263 1889 1
263 2387 1
263 2408 1
263 2786 1
263 3008 1
264 144 1
264 516 1
264 702 1
264 1015 1
264 1100 1
264 1539 1
264 1673 1
264 1890 1
264 2388 1
264 2409 1
264 2787 1
264 3187 1
265 145 1
265 517 1
265 703 1
265 927 1
265 1101 1
265 1540 1
265 1674 1
265 1891 1
265 2389 1
265 2410 1
265 2788 1
265 3099 1
266 146 1
266 518 1
266 704 1
266 839 1
266 1102 1
266 1541 1
266 1675 1
266 1892 1
266 2390 1
266 2411 1
266 2789 1
266 3011 1
267 147 1
267 519 1
267 705 1
267 1018 1
267 1103 1
267 1542 1
267 1676 1
267 1893 1
267 2391 1
267 2412 1
267 2790 1
267 3190 1
268 208 1
268 415 1
268 787 1
268 973 1
268 1197 1
268 1371 1
268 1767 1
268 1944 1
268 2161 1
268 2659 1
268 2680 1
268 3058 1
269 209 1
269 416 1
269 788 1
269 974 1
269 1109 1
269 1372 1
269 1679 1
269 1945 1
269 2162 1
269 2660 1
269 2681 1
269 3059 1
270 210 1
270 417 1
270 789 1
270 975 1
270 1288 1
270 1373 1
270 1858 1
270 1946 1
270 2163 1
270 2661 1
270 2682 1
270 3060 1
271 211 1
271 418 1
271 790 1
271 976 1
271 1200 1
271 1374 1
271 1770 1
271 1947 1
271 2164 1
271 2662 1
271 2683 1
271 3061 1
272 212 1
272 419 1
272 791 1
272 977 1
272 1112 1
272 1375 1
272 1682 1
272 1948 1
272 2165 1
272 2663 1
272 2684 1
272 3062 1
273 213 1
273 420 1
273 792 1
273 978 1
273 1291 1
273 1376 1
273 1861 1
273 1949 1
273 2166 1
273 2664 1
273 2685 1
273 3063 1
274 214 1
274 421 1
274 793 1
274 979 1
274 1203 1
274 1377 1
274 1773 1
274 1950 1
274 2167 1
274 2665 1
274 2686 1
274 3064 1
275 215 1
275 422 1
275 794 1
275 980 1
275 1115 1
275 1378 1
275 1685 1
275 1951 1
275 2168 1
275 2666 1
275 2687 1
275 3065 1
276 216 1
276 423 1
276 795 1
276 981 1
276 1294 1
276 1379 1
276 1864 1
276 1952 1
276 2169 1
276 2667 1
276 2688 1
276 3066 1
277 217 1
277 424 1
277 796 1
277 982 1
277 1206 1
277 1380 1
277 1776 1
277 1953 1
277 2170 1
277 2668 1
277 2689 1
277 3067 1
278 218 1
278 425 1
278 797 1
278 983 1
278 1118 1
278 1381 1
278 1688 1
278 1954 1
278 2171 1
278 2669 1
278 2690 1
278 3068 1
279 219 1
279 426 1
279 798 1
279 984 1
279 1297 1
279 1382 1
279 1867 1
279 1955 1
279 2172 1
279 2670 1
279 2691 1
279 3069 1
280 220 1
280 427 1
280 799 1
280 985 1
280 1209 1
280 1383 1
280 1779 1
280 1956 1
280 2173 1
280 2404 1
280 2692 1
280 3070 1
281 221 1
281 428 1
281 800 1
281 986 1
281 1121 1
281 1384 1
281 1691 1
281 1957 1
281 2174 1
281 2405 1
281 2693 1
281 3071 1
282 222 1
282 429 1
282 801 1
282 987 1
282 1300 1
282 1385 1
282 1603 1
282 1958 1
282 2175 1
282 2406 1
282 2694 1
282 3072 1
283 223 1
283 430 1
283 535 1
283 988 1
283 1212 1
283 1386 1
283 1782 1
283 1959 1
283 2176 1
283 2407 1
283 2695 1
283 3073 1
284 224 1
284 431 1
284 536 1
284 989 1
284 1124 1
284 1387 1
284 1694 1
284 1960 1
284 2177 1
284 2408 1
284 2696 1
284 3074 1
285 225 1
285 432 1
285 537 1
285 990 1
285 1303 1
285 1388 1
285 1606 1
285 1961 1
285 2178 1
285 2409 1
285 2697 1
285 3075 1
286 226 1
286 433 1
286 538 1
286 991 1
286 1215 1
286 1389 1
286 1785 1
286 1962 1
286 2179 1
286 2410 1
286 2698 1
286 3076 1
287 227 1
287 434 1
287 539 1
287 992 1
287 1127 1
287 1390 1
287 1697 1
287 1963 1
287 2180 1
287 2411 1
287 2699 1
287 3077 1
288 228 1
288 435 1
288 540 1
288 993 1
288 1306 1
288 1391 1
288 1609 1
288 1964 1
288 2181 1
288 2412 1
288 2700 1
288 3078 1
289 229 1
289 436 1
289 541 1
289 994 1
289 1218 1
289 1392 1
289 1788 1
289 1965 1
289 2182 1
289 2413 1
289 2701 1
289 3079 1
290 230 1
290 437 1
290 542 1
290 995 1
290 1130 1
290 1393 1
290 1700 1
290 1966 1
290 2183 1
290 2414 1
290 2702 1
290 3080 1
291 231 1
291 438 1
291 543 1
291 996 1
291 1309 1
291 1394 1
291 1612 1
291 1967 1
291 2184 1
291 2415 1
291 2703 1
291 3081 1
292 232 1
292 439 1
292 544 1
292 997 1
292 1221 1
292 1395 1
292 1791 1
292 1968 1
292 2185 1
292 2416 1
292 2704 1
292 3082 1
293 233 1
293 440 1
293 545 1
293 998 1
293 1133 1
293 1396 1
293 1703 1
293 1969 1
293 2186 1
293 2417 1
293 2705 1
293 3083 1
294 234 1
294 441 1
294 546 1
294 999 1
294 1312 1
294 1397 1
294 1615 1
294 1970 1
294 2187 1
294 2418 1
294 2706 1
294 3084 1
295 235 1
295 442 1
295 547 1
295 1000 1
295 1224 1
295 1398 1
295 1794 1
295 1971 1
295 2188 1
295 2419 1
295 2707 1
295 3085 1
296 236 1
296 443 1
296 548 1
296 1001 1
296 1136 1
296 1399 1
296 1706 1
296 1972 1
296 2189 1
296 2420 1
296 2708 1
296 3086 1
297 237 1
297 444 1
297 549 1
297 1002 1
297 1315 1
297 1400 1
297 1618 1
297 1973 1
297 2190 1
297 2421 1
297 2709 1
297 3087 1
298 238 1
298 445 1
298 550 1
298 1003 1
298 1227 1
298 1401 1
298 1797 1
298 1974 1
298 2191 1
298 2422 1
298 2710 1
298 3088 1
299 239 1
299 446 1
299 551 1
299 1004 1
299 1139 1
299 1402 1
299 1709 1
299 1975 1
299 2192 1
299 2423 1
299 2711 1
299 3089 1
300 240 1
300 447 1
300 552 1
300 1005 1
300 1318 1
300 1403 1
300 1621 1
300 1976 1
300 2193 1
300 2424 1
300 2712 1
300 3090 1
301 241 1
301 448 1
301 553 1
301 1006 1
301 1230 1
301 1404 1
301 1800 1
301 1977 1
301 2194 1
301 2425 1
301 2713 1
301 3091 1
302 242 1
302 449 1
302 554 1
302 1007 1
302 1142 1
302 1405 1
302 1712 1
302 1978 1
302 2195 1
302 2426 1
302 2714 1
302 3092 1
303 243 1
303 450 1
303 555 1
303 1008 1
303 1321 1
303 1406 1
303 1624 1
303 1979 1
303 2196 1
303 2427 1
303 2715 1
303 3093 1
304 244 1
304 451 1
304 556 1
304 1009 1
304 1233 1
304 1407 1
304 1803 1
304 1980 1
304 2197 1
304 2428 1
304 2716 1
304 3094 1
305 245 1
305 452 1
305 557 1
305 1010 1
305 1145 1
305 1408 1
305 1715 1
305 1981 1
305 2198 1
305 2429 1
305 2717 1
305 3095 1
306 246 1
306 453 1
306 558 1
306 1011 1
306 1324 1
306 1409 1
306 1627 1
306 1982 1
306 2199 1
306 2430 1
306 2718 1
306 3096 1
307 247 1
307 454 1
307 559 1
307 1012 1
307 1236 1
307 1410 1
307 1806 1
307 1983 1
307 2200 1
307 2431 1
307 2719 1
307 3097 1
308 248 1
308 455 1
308 560 1
308 1013 1
308 1148 1
308 1411 1
308 1718 1
308 1984 1
308 2201 1
308 2432 1
308 2720 1
308 3098 1
309 249 1
309 456 1
309 561 1
309 1014 1
309 1327 1
309 1412 1
309 1630 1
309 1985 1
309 2202 1
309 2433 1
309 2721 1
309 3099 1
310 250 1
310 457 1
310 562 1
310 1015 1
310 1239 1
310 1413 1
310 1809 1
310 1986 1
310 2203 1
310 2434 1
310 2722 1
310 3100 1
311 251 1
311 458 1
311 563 1
311 1016 1
311 1151 1
311 1414 1
311 1721 1
311 1987 1
311 2204 1
311 2435 1
311 2723 1
311 3101 1
312 252 1
312 459 1
312 564 1
312 1017 1
312 1330 1
312 1415 1
312 1633 1
312 1988 1
312 2205 1
312 2436 1
312 2724 1
312 3102 1
313 253 1
313 460 1
313 565 1
313 1018 1
313 1242 1
313 1416 1
313 1812 1
313 1989 1
313 2206 1
313 2437 1
313 2725 1
313 3103 1
314 254 1
314 461 1
314 566 1
314 1019 1
314 1154 1
314 1417 1
314 1724 1
314 1990 1
314 2207 1
314 2438 1
314 2726 1
314 3104 1
315 255 1
315 462 1
315 567 1
315 1020 1
315 1333 1
315 1418 1
315 1636 1
315 1991 1
315 2208 1
315 2439 1
315 2727 1
315 3105 1
316 256 1
316 463 1
316 568 1
316 1021 1
316 1245 1
316 1419 1
316 1815 1
316 1992 1
316 2209 1
316 2440 1
316 2728 1
316 3106 1
317 257 1
317 464 1
317 569 1
317 1022 1
317 1157 1
317 1420 1
317 1727 1
317 1993 1
317 2210 1
317 2441 1
317 2729 1
317 3107 1
318 258 1
318 465 1
318 570 1
318 1023 1
318 1069 1
318 1421 1
318 1639 1
318 1994 1
318 2211 1
318 2442 1
318 2730 1
318 3108 1
319 259 1
319 466 1
319 571 1
319 1024 1
319 1248 1
319 1422 1
319 1818 1
319 1995 1
319 2212 1
319 2443 1
319 2731 1
319 3109 1
320 260 1
320 467 1
320 572 1
320 1025 1
320 1160 1
320 1423 1
320 1730 1
320 1996 1
320 2213 1
320 2444 1
320 2732 1
320 3110 1
321 261 1
321 468 1
321 573 1
321 1026 1
321 1072 1
321 1424 1
321 1642 1
321 1997 1
321 2214 1
321 2445 1
321 2733 1
321 3111 1
322 262 1
322 469 1
322 574 1
322 1027 1
322 1251 1
322 1425 1
322 1821 1
322 1998 1
322 2215 1
322 2446 1
322 2734 1
322 3112 1
323 263 1
323 470 1
323 575 1
323 1028 1
323 1163 1
323 1426 1
323 1733 1
323 1999 1
323 2216 1
323 2447 1
323 2735 1
323 3113 1
324 264 1
324 471 1
324 576 1
324 1029 1
324 1075 1
324 1427 1
324 1645 1
324 2000 1
324 2217 1
324 2448 1
324 2736 1
324 3114 1
325 265 1
325 472 1
325 577 1
325 1030 1
325 1254 1
325 1428 1
325 1824 1
325 2001 1
325 2218 1
325 2449 1
325 2737 1
325 3115 1
326 266 1
326 473 1
326 578 1
326 1031 1
326 1166 1
326 1429 1
326 1736 1
326 2002 1
326 2219 1
326 2450 1
326 2738 1
326 3116 1
327 267 1
327 474 1
327 579 1
327 1032 1
327 1078 1
327 1430 1
327 1648 1
327 2003 1
327 2220 1
327 2451 1
327 2739 1
327 3117 1
328 1 1
328 475 1
328 580 1
328 1033 1
328 1257 1
328 1431 1
328 1827 1
328 2004 1
328 2221 1
328 2452 1
328 2740 1
328 3118 1
329 2 1
329 476 1
329 581 1
329 1034 1
329 1169 1
329 1432 1
329 1739 1
329 2005 1
329 2222 1
329 2453 1
329 2741 1
329 3119 1
330 3 1
330 477 1
330 582 1
330 1035 1
330 1081 1
330 1433 1
330 1651 1
330 2006 1
330 2223 1
330 2454 1
330 2742 1
330 3120 1
331 4 1
331 478 1
331 583 1
331 1036 1
331 1260 1
331 1434 1
331 1830 1
331 2007 1
331 2224 1
331 2455 1
331 2743 1
331 3121 1
332 5 1
332 479 1
332 584 1
332 1037 1
332 1172 1
332 1435 1
332 1742 1
332 2008 1
332 2225 1
332 2456 1
332 2744 1
332 3122 1
333 6 1
333 480 1
333 585 1
333 1038 1
333 1084 1
333 1436 1
333 1654 1
333 2009 1
333 2226 1
333 2457 1
333 2745 1
333 3123 1
334 7 1
334 481 1
334 586 1
334 1039 1
334 1263 1
334 1437 1
334 1833 1
334 2010 1
334 2227 1
334 2458 1
334 2746 1
334 3124 1
335 8 1
335 482 1
335 587 1
335 1040 1
335 1175 1
335 1438 1
335 1745 1
335 2011 1
335 2228 1
335 2459 1
335 2747 1
335 3125 1
336 9 1
336 483 1
336 588 1
336 1041 1
336 1087 1
336 1439 1
336 1657 1
336 2012 1
336 2229 1
336 2460 1
336 2748 1
336 3126 1
337 10 1
337 484 1
337 589 1
337 1042 1
337 1266 1
337 1440 1
337 1836 1
337 2013 1
337 2230 1
337 2461 1
337 2749 1
337 3127 1
338 11 1
338 485 1
338 590 1
338 1043 1
338 1178 1
338 1441 1
338 1748 1
338 2014 1
338 2231 1
338 2462 1
338 2750 1
338 3128 1
339 12 1
339 486 1
339 591 1
339 1044 1
339 1090 1
339 1442 1
339 1660 1
339 2015 1
339 2232 1
339 2463 1
339 2751 1
339 3129 1
340 13 1
340 487 1
340 592 1
340 1045 1
340 1269 1
340 1443 1
340 1839 1
340 2016 1
340 2233 1
340 2464 1
340 2752 1
340 3130 1
341 14 1
341 488 1
341 593 1
341 1046 1
341 1181 1
341 1444 1
341 1751 1
341 2017 1
341 2234 1
341 2465 1
341 2753 1
341 3131 1
342 15 1
342 489 1
342 594 1
342 1047 1
342 1093 1
342 1445 1
342 1663 1
342 2018 1
342 2235 1
342 2466 1
342 2754 1
342 3132 1
343 16 1
343 490 1
343 595 1
343 1048 1
343 1272 1
343 1446 1
343 1842 1
343 2019 1
343 2236 1
343 2467 1
343 2755 1
343 3133 1
344 17 1
344 491 1
344 596 1
344 1049 1
344 1184 1
344 1447 1
344 1754 1
344 2020 1
344 2237 1
344 2468 1
344 2756 1
344 3134 1
345 18 1
345 492 1
345 597 1
345 1050 1
345 1096 1
345 1448 1
345 1666 1
345 2021 1
345 2238 1
345 2469 1
345 2757 1
345 3135 1
346 19 1
346 493 1
346 598 1
346 1051 1
346 1275 1
346 1449 1
346 1845 1
346 2022 1
346 2239 1
346 2470 1
346 2758 1
346 3136 1
347 20 1
347 494 1
347 599 1
347 1052 1
347 1187 1
347 1450 1
347 1757 1
347 2023 1
347 2240 1
347 2471 1
347 2759 1
347 3137 1
348 21 1
348 495 1
348 600 1
348 1053 1
348 1099 1
348 1451 1
348 1669 1
348 2024 1
348 2241 1
348 2472 1
348 2760 1
348 3138 1
349 22 1
349 496 1
349 601 1
349 1054 1
349 1278 1
349 1452 1
349 1848 1
349 2025 1
349 2242 1
349 2473 1
349 2761 1
349 3139 1
350 23 1
350 497 1
350 602 1
350 1055 1
350 1190 1
350 1453 1
350 1760 1
350 2026 1
350 2243 1
350 2474 1
350 2762 1
350 3140 1
351 24 1
351 498 1
351 603 1
351 1056 1
351 1102 1
351 1454 1
351 1672 1
351 2027 1
351 2244 1
351 2475 1
351 2763 1
351 3141 1
352 25 1
352 499 1
352 604 1
352 1057 1
352 1281 1
352 1455 1
352 1851 1
352 2028 1
352 2245 1
352 2476 1
352 2764 1
352 3142 1
353 26 1
353 500 1
353 605 1
353 1058 1
353 1193 1
353 1456 1
353 1763 1
353 2029 1
353 2246 1
353 2477 1
353 2765 1
353 3143 1
354 27 1
354 501 1
354 606 1
354 1059 1
354 1105 1
354 1457 1
354 1675 1
354 2030 1
354 2247 1
354 2478 1
354 2766 1
354 3144 1
355 28 1
355 502 1
355 607 1
355 1060 1
355 1284 1
355 1458 1
355 1854 1
355 2031 1
355 2248 1
355 2479 1
355 2767 1
355 3145 1
356 29 1
356 503 1
356 608 1
356 1061 1
356 1196 1
356 1459 1
356 1766 1
356 2032 1
356 2249 1
356 2480 1
356 2768 1
356 3146 1
357 30 1
357 504 1
357 609 1
357 1062 1
357 1108 1
357 1460 1
357 1678 1
357 2033 1
357 2250 1
357 2481 1
357 2769 1
357 3147 1
358 31 1
358 505 1
358 610 1
358 1063 1
358 1287 1
358 1461 1
358 1857 1
358 2034 1
358 2251 1
358 2482 1
358 2770 1
358 3148 1
359 32 1
359 506 1
359 611 1
359 1064 1
359 1199 1
359 1462 1
359 1769 1
359 2035 1
359 2252 1
359 2483 1
359 2771 1
359 3149 1
360 33 1
360 507 1
360 612 1
360 1065 1
360 1111 1
360 1463 1
360 1681 1
360 2036 1
360 2253 1
360 2484 1
360 2772 1
360 3150 1
361 34 1
361 508 1
361 613 1
361 1066 1
361 1290 1
361 1464 1
361 1860 1
361 2037 1
361 2254 1
361 2485 1
361 2773 1
361 3151 1
362 35 1
362 509 1
362 614 1
362 1067 1
362 1202 1
362 1465 1
362 1772 1
362 2038 1
362 2255 1
362 2486 1
362 2774 1
362 3152 1
363 36 1
363 510 1
363 615 1
363 1068 1
363 1114 1
363 1466 1
363 1684 1
363 2039 1
363 2256 1
363 2487 1
363 2775 1
363 3153 1
364 37 1
364 511 1
364 616 1
364 802 1
364 1293 1
364 1467 1
364 1863 1
364 2040 1
364 2257 1
364 2488 1
364 2776 1
364 3154 1
365 38 1
365 512 1
365 617 1
365 803 1
365 1205 1
365 1468 1
365 1775 1
365 2041 1
365 2258 1
365 2489 1
365 2777 1
365 3155 1
366 39 1
366 513 1
366 618 1
366 804 1
366 1117 1
366 1469 1
366 1687 1
366 2042 1
366 2259 1
366 2490 1
366 2778 1
366 3156 1
367 40 1
367 514 1
367 619 1
367 805 1
367 1296 1
367 1470 1
367 1866 1
367 2043 1
367 2260 1
367 2491 1
367 2779 1
367 3157 1
368 41 1
368 515 1
368 620 1
368 806 1
368 1208 1
368 1471 1
368 1778 1
368 2044 1
368 2261 1
368 2492 1
368 2780 1
368 3158 1
369 42 1
369 516 1
369 621 1
369 807 1
369 1120 1
369 1472 1
369 1690 1
369 2045 1
369 2262 1
369 2493 1
369 2781 1
369 3159 1
370 43 1
370 517 1
370 622 1
370 808 1
370 1299 1
370 1473 1
370 1869 1
370 2046 1
370 2263 1
370 2494 1
370 2782 1
370 3160 1
371 44 1
371 518 1
371 623 1
371 809 1
371 1211 1
371 1474 1
371 1781 1
371 2047 1
371 2264 1
371 2495 1
371 2783 1
371 3161 1
372 45 1
372 519 1
372 624 1
372 810 1
372 1123 1
372 1475 1
372 1693 1
372 2048 1
372 2265 1
372 2496 1
372 2784 1
372 3162 1
373 46 1
373 520 1
373 625 1
373 811 1
373 1302 1
373 1476 1
373 1605 1
373 2049 1
373 2266 1
373 2497 1
373 2785 1
373 3163 1
374 47 1
374 521 1
374 626 1
374 812 1
374 1214 1
374 1477 1
374 1784 1
374 2050 1
374 2267 1
374 2498 1
374 2786 1
374 3164 1
375 48 1
375 522 1
375 627 1
375 813 1
375 1126 1
375 1478 1
375 1696 1
375 2051 1
375 2268 1
375 2499 1
375 2787 1
375 3165 1
376 49 1
376 523 1
376 628 1
376 814 1
376 1305 1
376 1479 1
376 1608 1
376 2052 1
376 2269 1
376 2500 1
376 2788 1
376 3166 1
377 50 1
377 524 1
377 629 1
377 815 1
377 1217 1
377 1480 1
377 1787 1
377 2053 1
377 2270 1
377 2501 1
377 2789 1
377 3167 1
378 51 1
378 525 1
378 630 1
378 816 1
378 1129 1
378 1481 1
378 1699 1
378 2054 1
378 2271 1
378 2502 1
378 2790 1
378 3168 1
379 52 1
379 526 1
379 631 1
379 817 1
379 1308 1
379 1482 1
379 1611 1
379 2055 1
379 2272 1
379 2503 1
379 2791 1
379 3169 1
380 53 1
380 527 1
380 632 1
380 818 1
380 1220 1
380 1483 1
380 1790 1
380 2056 1
380 2273 1
380 2504 1
380 2792 1
380 3170 1
381 54 1
381 528 1
381 633 1
381 819 1
381 1132 1
381 1484 1
381 1702 1
381 2057 1
381 2274 1
381 2505 1
381 2793 1
381 3171 1
382 55 1
382 529 1
382 634 1
382 820 1
382 1311 1
382 1485 1
382 1614 1
382 2058 1
382 2275 1
382 2506 1
382 2794 1
382 3172 1
383 56 1
383 530 1
383 635 1
383 821 1
383 1223 1
383 1486 1
383 1793 1
383 2059 1
383 2276 1
383 2507 1
383 2795 1
383 3173 1
384 57 1
384 531 1
384 636 1
384 822 1
384 1135 1
384 1487 1
384 1705 1
384 2060 1
384 2277 1
384 2508 1
384 2796 1
384 3174 1
385 58 1
385 532 1
385 637 1
385 823 1
385 1314 1
385 1488 1
385 1617 1
385 2061 1
385 2278 1
385 2509 1
385 2797 1
385 3175 1
386 59 1
386 533 1
386 638 1
386 824 1
386 1226 1
386 1489 1
386 1796 1
386 2062 1
386 2279 1
386 2510 1
386 2798 1
386 3176 1
387 60 1
387 534 1
387 639 1
387 825 1
387 1138 1
387 1490 1
387 1708 1
387 2063 1
387 2280 1
387 2511 1
387 2799 1
387 3177 1
388 61 1
388 268 1
388 640 1
388 826 1
388 1317 1
388 1491 1
388 1620 1
388 2064 1
388 2281 1
388 2512 1
388 2800 1
388 3178 1
389 62 1
389 269 1
389 641 1
389 827 1
389 1229 1
389 1492 1
389 1799 1
389 2065 1
389 2282 1
389 2513 1
389 2801 1
389 3179 1
390 63 1
390 270 1
390 642 1
390 828 1
390 1141 1
390 1493 1
390 1711 1
390 2066 1
390 2283 1
390 2514 1
390 2802 1
390 3180 1
391 64 1
391 271 1
391 643 1
391 829 1
391 1320 1
391 1494 1
391 1623 1
391 2067 1
391 2284 1
391 2515 1
391 2803 1
391 3181 1
392 65 1
392 272 1
392 644 1
392 830 1
392 1232 1
392 1495 1
392 1802 1
392 2068 1
392 2285 1
392 2516 1
392 2804 1
392 3182 1
393 66 1
393 273 1
393 645 1
393 831 1
393 1144 1
393 1496 1
393 1714 1
393 2069 1
393 2286 1
393 2517 1
393 2805 1
393 3183 1
394 67 1
394 274 1
394 646 1
394 832 1
394 1323 1
394 1497 1
394 1626 1
394 2070 1
394 2287 1
394 2518 1
394 2806 1
394 3184 1
395 68 1
395 275 1
395 647 1
395 833 1
395 1235 1
395 1498 1
395 1805 1
395 2071 1
395 2288 1
395 2519 1
395 2807 1
395 3185 1
396 69 1
396 276 1
396 648 1
396 834 1
396 1147 1
396 1499 1
396 1717 1
396 2072 1
396 2289 1
396 2520 1
396 2808 1
396 3186 1
397 70 1
397 277 1
397 649 1
397 835 1
397 1326 1
397 1500 1
397 1629 1
397 2073 1
397 2290 1
397 2521 1
397 2809 1
397 3187 1
398 71 1
398 278 1
398 650 1
398 836 1
398 1238 1
398 1501 1
398 1808 1
398 2074 1
398 2291 1
398 2522 1
398 2810 1
398 3188 1
399 72 1
399 279 1
399 651 1
399 837 1
399 1150 1
399 1502 1
399 1720 1
399 2075 1
399 2292 1
399 2523 1
399 2811 1
399 3189 1
400 73 1
400 280 1
400 652 1
400 838 1
400 1329 1
400 1503 1
400 1632 1
400 2076 1
400 2293 1
400 2524 1
400 2812 1
400 3190 1
401 74 1
401 281 1
401 653 1
401 839 1
401 1241 1
401 1504 1
401 1811 1
401 2077 1
401 2294 1
401 2525 1
401 2813 1
401 3191 1
402 75 1
402 282 1
402 654 1
402 840 1
402 1153 1
402 1505 1
402 1723 1
402 2078 1
402 2295 1
402 2526 1
402 2814 1
402 3192 1
403 76 1
403 283 1
403 655 1
403 841 1
403 1332 1
403 1506 1
403 1635 1
403 2079 1
403 2296 1
403 2527 1
403 2815 1
403 3193 1
404 77 1
404 284 1
404 656 1
404 842 1
404 1244 1
404 1507 1
404 1814 1
404 2080 1
404 2297 1
404 2528 1
404 2816 1
404 3194 1
405 78 1
405 285 1
405 657 1
405 843 1
405 1156 1
405 1508 1
405 1726 1
405 2081 1
405 2298 1
405 2529 1
405 2817 1
405 3195 1
406 79 1
406 286 1
406 658 1
406 844 1
406 1335 1
406 1509 1
406 1638 1
406 2082 1
406 2299 1
406 2530 1
406 2818 1
406 3196 1
407 80 1
407 287 1
407 659 1
407 845 1
407 1247 1
407 1510 1
407 1817 1
407 2083 1
407 2300 1
407 2531 1
407 2819 1
407 3197 1
408 81 1
408 288 1
408 660 1
408 846 1
408 1159 1
408 1511 1
408 1729 1
408 2084 1
408 2301 1
408 2532 1
408 2820 1
408 3198 1
409 82 1
409 289 1
409 661 1
409 847 1
409 1071 1
409 1512 1
409 1641 1
409 2085 1
409 2302 1
409 2533 1
409 2821 1
409 3199 1
410 83 1
410 290 1
410 662 1
410 848 1
410 1250 1
410 1513 1
410 1820 1
410 2086 1
410 2303 1
410 2534 1
410 2822 1
410 3200 1
411 84 1
411 291 1
411 663 1
411 849 1
411 1162 1
411 1514 1
411 1732 1
411 2087 1
411 2304 1
411 2535 1
411 2823 1
411 3201 1
412 85 1
412 292 1
412 664 1
412 850 1
412 1074 1
412 1515 1
412 1644 1
412 2088 1
412 2305 1
412 2536 1
412 2824 1
412 3202 1
413 86 1
413 293 1
413 665 1
413 851 1
413 1253 1
413 1516 1
413 1823 1
413 2089 1
413 2306 1
413 2537 1
413 2825 1
413 3203 1
414 87 1
414 294 1
414 666 1
414 852 1
414 1165 1
414 1517 1
414 1735 1
414 2090 1
414 2307 1
414 2538 1
414 2826 1
414 3204 1
415 88 1
415 295 1
415 667 1
415 853 1
415 1077 1
415 1518 1
415 1647 1
415 2091 1
415 2308 1
415 2539 1
415 2827 1
415 2938 1
416 89 1
416 296 1
416 668 1
416 854 1
416 1256 1
416 1519 1
416 1826 1
416 2092 1
416 2309 1
416 2540 1
416 2828 1
416 2939 1
417 90 1
417 297 1
417 669 1
417 855 1
417 1168 1
417 1520 1
417 1738 1
417 2093 1
417 2310 1
417 2541 1
417 2829 1
417 2940 1
418 91 1
418 298 1
418 670 1
418 856 1
418 1080 1
418 1521 1
418 1650 1
418 2094 1
418 2311 1
418 2542 1
418 2830 1
418 2941 1
419 92 1
419 299 1
419 671 1
419 857 1
419 1259 1
419 1522 1
419 1829 1
419 2095 1
419 2312 1
419 2543 1
419 2831 1
419 2942 1
420 93 1
420 300 1
420 672 1
420 858 1
420 1171 1
420 1523 1
420 1741 1
420 2096 1
420 2313 1
420 2544 1
420 2832 1
420 2943 1
421 94 1
421 301 1
421 673 1
421 859 1
421 1083 1
421 1524 1
421 1653 1
421 2097 1
421 2314 1
421 2545 1
421 2833 1
421 2944 1
422 95 1
422 302 1
422 674 1
422 860 1
422 1262 1
422 1525 1
422 1832 1
422 2098 1
422 2315 1
422 2546 1
422 2834 1
422 2945 1
423 96 1
423 303 1
423 675 1
423 861 1
423 1174 1
423 1526 1
423 1744 1
423 2099 1
423 2316 1
423 2547 1
423 2835 1
423 2946 1
424 97 1
424 304 1
424 676 1
424 862 1
424 1086 1
424 1527 1
424 1656 1
424 2100 1
424 2317 1
424 2548 1
424 2836 1
424 2947 1
425 98 1
425 305 1
425 677 1
425 863 1
425 1265 1
425 1528 1
425 1835 1
425 2101 1
425 2318 1
425 2549 1
425 2837 1
425 2948 1
426 99 1
426 306 1
426 678 1
426 864 1
426 1177 1
426 1529 1
426 1747 1
426 2102 1
426 2319 1
426 2550 1
426 2838 1
426 2949 1
427 100 1
427 307 1
427 679 1
427 865 1
427 1089 1
427 1530 1
427 1659 1
427 2103 1
427 2320 1
427 2551 1
427 2839 1
427 2950 1
428 101 1
428 308 1
428 680 1
428 866 1
428 1268 1
428 1531 1
428 1838 1
428 2104 1
428 2321 1
428 2552 1
428 2840 1
428 2951 1
429 102 1
429 309 1
429 681 1
429 867 1
429 1180 1
429 1532 1
429 1750 1
429 2105 1
429 2322 1
429 2553 1
429 2841 1
429 2952 1
430 103 1
430 310 1
430 682 1
430 868 1
430 1092 1
430 1533 1
430 1662 1
430 2106 1
430 2323 1
430 2554 1
430 2842 1
430 2953 1
431 104 1
431 311 1
431 683 1
431 869 1
431 1271 1
431 1534 1
431 1841 1
431 2107 1
431 2324 1
431 2555 1
431 2843 1
431 2954 1
432 105 1
432 312 1
432 684 1
432 870 1
432 1183 1
432 1535 1
432 1753 1
432 2108 1
432 2325 1
432 2556 1
432 2844 1
432 2955 1
433 106 1
433 313 1
433 685 1
433 871 1
433 1095 1
433 1536 1
433 1665 1
433 2109 1
433 2326 1
433 2557 1
433 2845 1
433 2956 1
434 107 1
434 314 1
434 686 1
434 872 1
434 1274 1
434 1537 1
434 1844 1
434 2110 1
434 2327 1
434 2558 1
434 2846 1
434 2957 1
435 108 1
435 315 1
435 687 1
435 873 1
435 1186 1
435 1538 1
435 1756 1
435 2111 1
435 2328 1
435 2559 1
435 2847 1
435 2958 1
436 109 1
436 316 1
436 688 1
436 874 1
436 1098 1
436 1539 1
436 1668 1
436 2112 1
436 2329 1
436 2560 1
436 2848 1
436 2959 1
437 110 1
437 317 1
437 689 1
437 875 1
437 1277 1
437 1540 1
437 1847 1
437 2113 1
437 2330 1
437 2561 1
437 2849 1
437 2960 1
438 111 1
438 318 1
438 690 1
438 876 1
438 1189 1
438 1541 1
438 1759 1
438 2114 1
438 2331 1
438 2562 1
438 2850 1
438 2961 1
439 112 1
439 319 1
439 691 1
439 877 1
439 1101 1
439 1542 1
439 1671 1
439 2115 1
439 2332 1
439 2563 1
439 2851 1
439 2962 1
440 113 1
440 320 1
440 692 1
440 878 1
440 1280 1
440 1543 1
440 1850 1
440 2116 1
440 2333 1
440 2564 1
440 2852 1
440 2963 1
441 114 1
441 321 1
441 693 1
441 879 1
441 1192 1
441 1544 1
441 1762 1
441 2117 1
441 2334 1
441 2565 1
441 2853 1
441 2964 1
442 115 1
442 322 1
442 694 1
442 880 1
442 1104 1
442 1545 1
442 1674 1
442 2118 1
442 2335 1
442 2566 1
442 2854 1
442 2965 1
443 116 1
443 323 1
443 695 1
443 881 1
443 1283 1
443 1546 1
443 1853 1
443 2119 1
443 2336 1
443 2567 1
443 2855 1
443 2966 1
444 117 1
444 324 1
444 696 1
444 882 1
444 1195 1
444 1547 1
444 1765 1
444 2120 1
444 2337 1
444 2568 1
444 2856 1
444 2967 1
445 118 1
445 325 1
445 697 1
445 883 1
445 1107 1
445 1548 1
445 1677 1
445 2121 1
445 2338 1
445 2569 1
445 2857 1
445 2968 1
446 119 1
446 326 1
446 698 1
446 884 1
446 1286 1
446 1549 1
446 1856 1
446 2122 1
446 2339 1
446 2570 1
446 2858 1
446 2969 1
447 120 1
447 327 1
447 699 1
447 885 1
447 1198 1
447 1550 1
447 1768 1
447 2123 1
447 2340 1
447 2571 1
447 2859 1
447 2970 1
448 121 1
448 328 1
448 700 1
448 886 1
448 1110 1
448 1551 1
448 1680 1
448 2124 1
448 2341 1
448 2572 1
448 2860 1
448 2971 1
449 122 1
449 329 1
449 701 1
449 887 1
449 1289 1
449 1552 1
449 1859 1
449 2125 1
449 2342 1
449 2573 1
449 2861 1
449 2972 1
450 123 1
450 330 1
450 702 1
450 888 1
450 1201 1
450 1553 1
450 1771 1
450 2126 1
450 2343 1
450 2574 1
450 2862 1
450 2973 1
451 124 1
451 331 1
451 703 1
451 889 1
451 1113 1
451 1554 1
451 1683 1
451 2127 1
451 2344 1
451 2575 1
451 2863 1
451 2974 1
452 125 1
452 332 1
452 704 1
452 890 1
452 1292 1
452 1555 1
452 1862 1
452 2128 1
452 2345 1
452 2576 1
452 2864 1
452 2975 1
453 126 1
453 333 1
453 705 1
453 891 1
453 1204 1
453 1556 1
453 1774 1
453 2129 1
453 2346 1
453 2577 1
453 2865 1
453 2976 1
454 127 1
454 334 1
454 706 1
454 892 1
454 1116 1
454 1557 1
454 1686 1
454 2130 1
454 2347 1
454 2578 1
454 2866 1
454 2977 1
455 128 1
455 335 1
455 707 1
455 893 1
455 1295 1
455 1558 1
455 1865 1
455 2131 1
455 2348 1
455 2579 1
455 2867 1
455 2978 1
456 129 1
456 336 1
456 708 1
456 894 1
456 1207 1
456 1559 1
456 1777 1
456 2132 1
456 2349 1
456 2580 1
456 2868 1
456 2979 1
457 130 1
457 337 1
457 709 1
457 895 1
457 1119 1
457 1560 1
457 1689 1
457 2133 1
457 2350 1
457 2581 1
457 2869 1
457 2980 1
458 131 1
458 338 1
458 710 1
458 896 1
458 1298 1
458 1561 1
458 1868 1
458 2134 1
458 2351 1
458 2582 1
458 2870 1
458 2981 1
459 132 1
459 339 1
459 711 1
459 897 1
459 1210 1
459 1562 1
459 1780 1
459 2135 1
459 2352 1
459 2583 1
459 2871 1
459 2982 1
460 133 1
460 340 1
460 712 1
460 898 1
460 1122 1
460 1563 1
460 1692 1
460 2136 1
460 2353 1
460 2584 1
460 2872 1
460 2983 1
461 134 1
461 341 1
461 713 1
461 899 1
461 1301 1
461 1564 1
461 1604 1
461 1870 1
461 2354 1
461 2585 1
461 2873 1
461 2984 1
462 135 1
462 342 1
462 714 1
462 900 1
462 1213 1
462 1565 1
462 1783 1
462 1871 1
462 2355 1
462 2586 1
462 2874 1
462 2985 1
463 136 1
463 343 1
463 715 1
463 901 1
463 1125 1
463 1566 1
463 1695 1
463 1872 1
463 2356 1
463 2587 1
463 2875 1
463 2986 1
464 137 1
464 344 1
464 716 1
464 902 1
464 1304 1
464 1567 1
464 1607 1
464 1873 1
464 2357 1
464 2588 1
464 2876 1
464 2987 1
465 138 1
465 345 1
465 717 1
465 903 1
465 1216 1
465 1568 1
465 1786 1
465 1874 1
465 2358 1
465 2589 1
465 2877 1
465 2988 1
466 139 1
466 346 1
466 718 1
466 904 1
466 1128 1
466 1569 1
466 1698 1
466 1875 1
466 2359 1
466 2590 1
466 2878 1
466 2989 1
467 140 1
467 347 1
467 719 1
467 905 1
467 1307 1
467 1570 1
467 1610 1
467 1876 1
467 2360 1
467 2591 1
467 2879 1
467 2990 1
468 141 1
468 348 1
468 720 1
468 906 1
468 1219 1
468 1571 1
468 1789 1
468 1877 1
468 2361 1
468 2592 1
468 2880 1
468 2991 1
469 142 1
469 349 1
469 721 1
469 907 1
469 1131 1
469 1572 1
469 1701 1
469 1878 1
469 2362 1
469 2593 1
469 2881 1
469 2992 1
470 143 1
470 350 1
470 722 1
470 908 1
470 1310 1
470 1573 1
470 1613 1
470 1879 1
470 2363 1
470 2594 1
470 2882 1
470 2993 1
471 144 1
471 351 1
471 723 1
471 909 1
471 1222 1
471 1574 1
471 1792 1
471 1880 1
471 2364 1
471 2595 1
471 2883 1
471 2994 1
472 145 1
472 352 1
472 724 1
472 910 1
472 1134 1
472 1575 1
472 1704 1
472 1881 1
472 2365 1
472 2596 1
472 2884 1
472 2995 1
473 146 1
473 353 1
473 725 1
473 911 1
473 1313 1
473 1576 1
473 1616 1
473 1882 1
473 2366 1
473 2597 1
473 2885 1
473 2996 1
474 147 1
474 354 1
474 726 1
474 912 1
474 1225 1
474 1577 1
474 1795 1
474 1883 1
474 2367 1
474 2598 1
474 2886 1
474 2997 1
475 148 1
475 355 1
475 727 1
475 913 1
475 1137 1
475 1578 1
475 1707 1
475 1884 1
475 2368 1
475 2599 1
475 2887 1
475 2998 1
476 149 1
476 356 1
476 728 1
476 914 1
476 1316 1
476 1579 1
476 1619 1
476 1885 1
476 2369 1
476 2600 1
476 2888 1
476 2999 1
477 150 1
477 357 1
477 729 1
477 915 1
477 1228 1
477 1580 1
477 1798 1
477 1886 1
477 2370 1
477 2601 1
477 2889 1
477 3000 1
478 151 1
478 358 1
478 730 1
478 916 1
478 1140 1
478 1581 1
478 1710 1
478 1887 1
478 2371 1
478 2602 1
478 2890 1
478 3001 1
479 152 1
479 359 1
479 731 1
479 917 1
479 1319 1
479 1582 1
479 1622 1
479 1888 1
479 2372 1
479 2603 1
479 2891 1
479 3002 1
480 153 1
480 360 1
480 732 1
480 918 1
480 1231 1
480 1583 1
480 1801 1
480 1889 1
480 2373 1
480 2604 1
480 2892 1
480 3003 1
481 154 1
481 361 1
481 733 1
481 919 1
481 1143 1
481 1584 1
481 1713 1
481 1890 1
481 2374 1
481 2605 1
481 2893 1
481 3004 1
482 155 1
482 362 1
482 734 1
482 920 1
482 1322 1
482 1585 1
482 1625 1
482 1891 1
482 2375 1
482 2606 1
482 2894 1
482 3005 1
483 156 1
483 363 1
483 735 1
483 921 1
483 1234 1
483 1586 1
483 1804 1
483 1892 1
483 2376 1
483 2607 1
483 2895 1
483 3006 1
484 157 1
484 364 1
484 736 1
484 922 1
484 1146 1
484 1587 1
484 1716 1
484 1893 1
484 2377 1
484 2608 1
484 2896 1
484 3007 1
485 158 1
485 365 1
485 737 1
485 923 1
485 1325 1
485 1588 1
485 1628 1
485 1894 1
485 2378 1
485 2609 1
485 2897 1
485 3008 1
486 159 1
486 366 1
486 738 1
486 924 1
486 1237 1
486 1589 1
486 1807 1
486 1895 1
486 2379 1
486 2610 1
486 2898 1
486 3009 1
487 160 1
487 367 1
487 739 1
487 925 1
487 1149 1
487 1590 1
487 1719 1
487 1896 1
487 2380 1
487 2611 1
487 2899 1
487 3010 1
488 161 1
488 368 1
488 740 1
488 926 1
488 1328 1
488 1591 1
488 1631 1
488 1897 1
488 2381 1
488 2612 1
488 2900 1
488 3011 1
489 162 1
489 369 1
489 741 1
489 927 1
489 1240 1
489 1592 1
489 1810 1
489 1898 1
489 2382 1
489 2613 1
489 2901 1
489 3012 1
490 163 1
490 370 1
490 742 1
490 928 1
490 1152 1
490 1593 1
490 1722 1
490 1899 1
490 2383 1
490 2614 1
490 2902 1
490 3013 1
491 164 1
491 371 1
491 743 1
491 929 1
491 1331 1
491 1594 1
491 1634 1
491 1900 1
491 2384 1
491 2615 1
491 2903 1
491 3014 1
492 165 1
492 372 1
492 744 1
492 930 1
492 1243 1
492 1595 1
492 1813 1
492 1901 1
492 2385 1
492 2616 1
492 2904 1
492 3015 1
493 166 1
493 373 1
493 745 1
493 931 1
493 1155 1
493 1596 1
493 1725 1
493 1902 1
493 2386 1
493 2617 1
493 2905 1
493 3016 1
494 167 1
494 374 1
494 746 1
494 932 1
494 1334 1
494 1597 1
494 1637 1
494 1903 1
494 2387 1
494 2618 1
494 2906 1
494 3017 1
495 168 1
495 375 1
495 747 1
495 933 1
495 1246 1
495 1598 1
495 1816 1
495 1904 1
495 2388 1
495 2619 1
495 2907 1
495 3018 1
496 169 1
496 376 1
496 748 1
496 934 1
496 1158 1
496 1599 1
496 1728 1
496 1905 1
496 2389 1
496 2620 1
496 2908 1
496 3019 1
497 170 1
497 377 1
497 749 1
497 935 1
497 1070 1
497 1600 1
497 1640 1
497 1906 1
497 2390 1
497 2621 1
497 2909 1
497 3020 1
498 171 1
498 378 1
498 750 1
498 936 1
498 1249 1
498 1601 1
498 1819 1
498 1907 1
498 2391 1
498 2622 1
498 2910 1
498 3021 1
499 172 1
499 379 1
499 751 1
499 937 1
499 1161 1
499 1602 1
499 1731 1
499 1908 1
499 2392 1
499 2623 1
499 2911 1
499 3022 1
500 173 1
500 380 1
500 752 1
500 938 1
500 1073 1
500 1336 1
500 1643 1
500 1909 1
500 2393 1
500 2624 1
500 2912 1
500 3023 1
501 174 1
501 381 1
501 753 1
501 939 1
501 1252 1
501 1337 1
501 1822 1
501 1910 1
501 2394 1
501 2625 1
501 2913 1
501 3024 1
502 175 1
502 382 1
502 754 1
502 940 1
502 1164 1
502 1338 1
502 1734 1
502 1911 1
502 2395 1
502 2626 1
502 2914 1
502 3025 1
503 176 1
503 383 1
503 755 1
503 941 1
503 1076 1
503 1339 1
503 1646 1
503 1912 1
503 2396 1
503 2627 1
503 2915 1
503 3026 1
504 177 1
504 384 1
504 756 1
504 942 1
504 1255 1
504 1340 1
504 1825 1
504 1913 1
504 2397 1
504 2628 1
504 2916 1
504 3027 1
505 178 1
505 385 1
505 757 1
505 943 1
505 1167 1
505 1341 1
505 1737 1
505 1914 1
505 2398 1
505 2629 1
505 2917 1
505 3028 1
506 179 1
506 386 1
506 758 1
506 944 1
506 1079 1
506 1342 1
506 1649 1
506 1915 1
506 2399 1
506 2630 1
506 2918 1
506 3029 1
507 180 1
507 387 1
507 759 1
507 945 1
507 1258 1
507 1343 1
507 1828 1
507 1916 1
507 2400 1
507 2631 1
507 2919 1
507 3030 1
508 181 1
508 388 1
508 760 1
508 946 1
508 1170 1
508 1344 1
508 1740 1
508 1917 1
508 2401 1
508 2632 1
508 2920 1
508 3031 1
509 182 1
509 389 1
509 761 1
509 947 1
509 1082 1
509 1345 1
509 1652 1
509 1918 1
509 2402 1
509 2633 1
509 2921 1
509 3032 1
510 183 1
510 390 1
510 762 1
510 948 1
510 1261 1
510 1346 1
510 1831 1
510 1919 1
510 2403 1
510 2634 1
510 2922 1
510 3033 1
511 184 1
511 391 1
511 763 1
511 949 1
511 1173 1
511 1347 1
511 1743 1
511 1920 1
511 2137 1
511 2635 1
511 2923 1
511 3034 1
512 185 1
512 392 1
512 764 1
512 950 1
512 1085 1
512 1348 1
512 1655 1
512 1921 1
512 2138 1
512 2636 1
512 2924 1
512 3035 1
513 186 1
513 393 1
513 765 1
513 951 1
513 1264 1
513 1349 1
513 1834 1
513 1922 1
513 2139 1
513 2637 1
513 2925 1
513 3036 1
514 187 1
514 394 1
514 766 1
514 952 1
514 1176 1
514 1350 1
514 1746 1
514 1923 1
514 2140 1
514 2638 1
514 2926 1
514 3037 1
515 188 1
515 395 1
515 767 1
515 953 1
515 1088 1
515 1351 1
515 1658 1
515 1924 1
515 2141 1
515 2639 1
515 2927 1
515 3038 1
516 189 1
516 396 1
516 768 1
516 954 1
516 1267 1
516 1352 1
516 1837 1
516 1925 1
516 2142 1
516 2640 1
516 2928 1
516 3039 1
517 190 1
517 397 1
517 769 1
517 955 1
517 1179 1
517 1353 1
517 1749 1
517 1926 1
517 2143 1
517 2641 1
517 2929 1
517 3040 1
518 191 1
518 398 1
518 770 1
518 956 1
518 1091 1
518 1354 1
518 1661 1
518 1927 1
518 2144 1
518 2642 1
518 2930 1
518 3041 1
519 192 1
519 399 1
519 771 1
519 957 1
519 1270 1
519 1355 1
519 1840 1
519 1928 1
519 2145 1
519 2643 1
519 2931 1
519 3042 1
520 193 1
520 400 1
520 772 1
520 958 1
520 1182 1
520 1356 1
520 1752 1
520 1929 1
520 2146 1
520 2644 1
520 2932 1
520 3043 1
521 194 1
521 401 1
521 773 1
521 959 1
521 1094 1
521 1357 1
521 1664 1
521 1930 1
521 2147 1
521 2645 1
521 2933 1
521 3044 1
522 195 1
522 402 1
522 774 1
522 960 1
522 1273 1
522 1358 1
522 1843 1
522 1931 1
522 2148 1
522 2646 1
522 2934 1
522 3045 1
523 196 1
523 403 1
523 775 1
523 961 1
523 1185 1
523 1359 1
523 1755 1
523 1932 1
523 2149 1
523 2647 1
523 2935 1
523 3046 1
524 197 1
524 404 1
524 776 1
524 962 1
524 1097 1
524 1360 1
524 1667 1
524 1933 1
524 2150 1
524 2648 1
524 2936 1
524 3047 1
525 198 1
525 405 1
525 777 1
525 963 1
525 1276 1
525 1361 1
525 1846 1
525 1934 1
525 2151 1
525 2649 1
525 2937 1
525 3048 1
526 199 1
526 406 1
526 778 1
526 964 1
526 1188 1
526 1362 1
526 1758 1
526 1935 1
526 2152 1
526 2650 1
526 2671 1
526 3049 1
527 200 1
527 407 1
527 779 1
527 965 1
527 1100 1
527 1363 1
527 1670 1
527 1936 1
527 2153 1
527 2651 1
527 2672 1
527 3050 1
528 201 1
528 408 1
528 780 1
528 966 1
528 1279 1
528 1364 1
528 1849 1
528 1937 1
528 2154 1
528 2652 1
528 2673 1
528 3051 1
529 202 1
529 409 1
529 781 1
529 967 1
529 1191 1
529 1365 1
529 1761 1
529 1938 1
529 2155 1
529 2653 1
529 2674 1
529 3052 1
530 203 1
530 410 1
530 782 1
530 968 1
530 1103 1
530 1366 1
530 1673 1
530 1939 1
530 2156 1
530 2654 1
530 2675 1
530 3053 1
531 204 1
531 411 1
531 783 1
531 969 1
531 1282 1
531 1367 1
531 1852 1
531 1940 1
531 2157 1
531 2655 1
531 2676 1
531 3054 1
532 205 1
532 412 1
532 784 1
532 970 1
532 1194 1
532 1368 1
532 1764 1
532 1941 1
532 2158 1
532 2656 1
532 2677 1
532 3055 1
533 206 1
533 413 1
533 785 1
533 971 1
533 1106 1
533 1369 1
533 1676 1
533 1942 1
533 2159 1
533 2657 1
533 2678 1
533 3056 1
534 207 1
534 414 1
534 786 1
534 972 1
534 1285 1
534 1370 1
534 1855 1
534 1943 1
534 2160 1
534 2658 1
534 2679 1
534 3057 1
535 36 1
535 475 1
535 682 1
535 1054 1
535 1240 1
535 1464 1
535 1723 1
535 2034 1
535 2211 1
535 2428 1
535 2926 1
535 2947 1
536 37 1
536 476 1
536 683 1
536 1055 1
536 1241 1
536 1376 1
536 1724 1
536 1946 1
536 2212 1
536 2429 1
536 2927 1
536 2948 1
537 38 1
537 477 1
537 684 1
537 1056 1
537 1242 1
537 1555 1
537 1725 1
537 2125 1
537 2213 1
537 2430 1
537 2928 1
537 2949 1
538 39 1
538 478 1
538 685 1
538 1057 1
538 1243 1
538 1467 1
538 1726 1
538 2037 1
538 2214 1
538 2431 1
538 2929 1
538 2950 1
539 40 1
539 479 1
539 686 1
539 1058 1
539 1244 1
539 1379 1
539 1727 1
539 1949 1
539 2215 1
539 2432 1
539 2930 1
539 2951 1
540 41 1
540 480 1
540 687 1
540 1059 1
540 1245 1
540 1558 1
540 1728 1
540 2128 1
540 2216 1
540 2433 1
540 2931 1
540 2952 1
541 42 1
541 481 1
541 688 1
541 1060 1
541 1246 1
541 1470 1
541 1729 1
541 2040 1
541 2217 1
541 2434 1
541 2932 1
541 2953 1
542 43 1
542 482 1
542 689 1
542 1061 1
542 1247 1
542 1382 1
542 1730 1
542 1952 1
542 2218 1
542 2435 1
542 2933 1
542 2954 1
543 44 1
543 483 1
543 690 1
543 1062 1
543 1248 1
543 1561 1
543 1731 1
543 2131 1
543 2219 1
543 2436 1
543 2934 1
543 2955 1
544 45 1
544 484 1
544 691 1
544 1063 1
544 1249 1
544 1473 1
544 1732 1
544 2043 1
544 2220 1
544 2437 1
544 2935 1
544 2956 1
545 46 1
545 485 1
545 692 1
545 1064 1
545 1250 1
545 1385 1
545 1733 1
545 1955 1
545 2221 1
545 2438 1
545 2936 1
545 2957 1
546 47 1
546 486 1
546 693 1
546 1065 1
546 1251 1
546 1564 1
546 1734 1
546 2134 1
546 2222 1
546 2439 1
546 2937 1
546 2958 1
547 48 1
547 487 1
547 694 1
547 1066 1
547 1252 1
547 1476 1
547 1735 1
547 2046 1
547 2223 1
547 2440 1
547 2671 1
547 2959 1
548 49 1
548 488 1
548 695 1
548 1067 1
548 1253 1
548 1388 1
548 1736 1
548 1958 1
548 2224 1
548 2441 1
548 2672 1
548 2960 1
549 50 1
549 489 1
549 696 1
549 1068 1
549 1254 1
549 1567 1
549 1737 1
549 1870 1
549 2225 1
549 2442 1
549 2673 1
549 2961 1
550 51 1
550 490 1
550 697 1
550 802 1
550 1255 1
550 1479 1
550 1738 1
550 2049 1
550 2226 1
550 2443 1
550 2674 1
550 2962 1
551 52 1
551 491 1
551 698 1
551 803 1
551 1256 1
551 1391 1
551 1739 1
551 1961 1
551 2227 1
551 2444 1
551 2675 1
551 2963 1
552 53 1
552 492 1
552 699 1
552 804 1
552 1257 1
552 1570 1
552 1740 1
552 1873 1
552 2228 1
552 2445 1
552 2676 1
552 2964 1
553 54 1
553 493 1
553 700 1
553 805 1
553 1258 1
553 1482 1
553 1741 1
553 2052 1
553 2229 1
553 2446 1
553 2677 1
553 2965 1
554 55 1
554 494 1
554 701 1
554 806 1
554 1259 1
554 1394 1
554 1742 1
554 1964 1
554 2230 1
554 2447 1
554 2678 1
554 2966 1
555 56 1
555 495 1
555 702 1
555 807 1
555 1260 1
555 1573 1
555 1743 1
555 1876 1
555 2231 1
555 2448 1
555 2679 1
555 2967 1
556 57 1
556 496 1
556 703 1
556 808 1
556 1261 1
556 1485 1
556 1744 1
556 2055 1
556 2232 1
556 2449 1
556 2680 1
556 2968 1
557 58 1
557 497 1
557 704 1
557 809 1
557 1262 1
557 1397 1
557 1745 1
557 1967 1
557 2233 1
557 2450 1
557 2681 1
557 2969 1
558 59 1
558 498 1
558 705 1
558 810 1
558 1263 1
558 1576 1
558 1746 1
558 1879 1
558 2234 1
558 2451 1
558 2682 1
558 2970 1
559 60 1
559 499 1
559 706 1
559 811 1
559 1264 1
559 1488 1
559 1747 1
559 2058 1
559 2235 1
559 2452 1
559 2683 1
559 2971 1
560 61 1
560 500 1
560 707 1
560 812 1
560 1265 1
560 1400 1
560 1748 1
560 1970 1
560 2236 1
560 2453 1
560 2684 1
560 2972 1
561 62 1
561 501 1
561 708 1
561 813 1
561 1266 1
561 1579 1
561 1749 1
561 1882 1
561 2237 1
561 2454 1
561 2685 1
561 2973 1
562 63 1
562 502 1
562 709 1
562 814 1
562 1267 1
562 1491 1
562 1750 1
562 2061 1
562 2238 1
562 2455 1
562 2686 1
562 2974 1
563 64 1
563 503 1
563 710 1
563 815 1
563 1268 1
563 1403 1
563 1751 1
563 1973 1
563 2239 1
563 2456 1
563 2687 1
563 2975 1
564 65 1
564 504 1
564 711 1
564 816 1
564 1269 1
564 1582 1
564 1752 1
564 1885 1
564 2240 1
564 2457 1
564 2688 1
564 2976 1
565 66 1
565 505 1
565 712 1
565 817 1
565 1270 1
565 1494 1
565 1753 1
565 2064 1
565 2241 1
565 2458 1
565 2689 1
565 2977 1
566 67 1
566 506 1
566 713 1
566 818 1
566 1271 1
566 1406 1
566 1754 1
566 1976 1
566 2242 1
566 2459 1
566 2690 1
566 2978 1
567 68 1
567 507 1
567 714 1
567 819 1
567 1272 1
567 1585 1
567 1755 1
567 1888 1
567 2243 1
567 2460 1
567 2691 1
567 2979 1
568 69 1
568 508 1
568 715 1
568 820 1
568 1273 1
568 1497 1
568 1756 1
568 2067 1
568 2244 1
568 2461 1
568 2692 1
568 2980 1
569 70 1
569 509 1
569 716 1
569 821 1
569 1274 1
569 1409 1
569 1757 1
569 1979 1
569 2245 1
569 2462 1
569 2693 1
569 2981 1
570 71 1
570 510 1
570 717 1
570 822 1
570 1275 1
570 1588 1
570 1758 1
570 1891 1
570 2246 1
570 2463 1
570 2694 1
570 2982 1
571 72 1
571 511 1
571 718 1
571 823 1
571 1276 1
571 1500 1
571 1759 1
571 2070 1
571 2247 1
571 2464 1
571 2695 1
571 2983 1
572 73 1
572 512 1
572 719 1
572 824 1
572 1277 1
572 1412 1
572 1760 1
572 1982 1
572 2248 1
572 2465 1
572 2696 1
572 2984 1
573 74 1
573 513 1
573 720 1
573 825 1
573 1278 1
573 1591 1
573 1761 1
573 1894 1
573 2249 1
573 2466 1
573 2697 1
573 2985 1
574 75 1
574 514 1
574 721 1
574 826 1
574 1279 1
574 1503 1
574 1762 1
574 2073 1
574 2250 1
574 2467 1
574 2698 1
574 2986 1
575 76 1
575 515 1
575 722 1
575 827 1
575 1280 1
575 1415 1
575 1763 1
575 1985 1
575 2251 1
575 2468 1
575 2699 1
575 2987 1
576 77 1
576 516 1
576 723 1
576 828 1
576 1281 1
576 1594 1
576 1764 1
576 1897 1
576 2252 1
576 2469 1
576 2700 1
576 2988 1
577 78 1
577 517 1
577 724 1
577 829 1
577 1282 1
577 1506 1
577 1765 1
577 2076 1
577 2253 1
577 2470 1
577 2701 1
577 2989 1
578 79 1
578 518 1
578 725 1
578 830 1
578 1283 1
578 1418 1
578 1766 1
578 1988 1
578 2254 1
578 2471 1
578 2702 1
578 2990 1
579 80 1
579 519 1
579 726 1
579 831 1
579 1284 1
579 1597 1
579 1767 1
579 1900 1
579 2255 1
579 2472 1
579 2703 1
579 2991 1
580 81 1
580 520 1
580 727 1
580 832 1
580 1285 1
580 1509 1
580 1768 1
580 2079 1
580 2256 1
580 2473 1
580 2704 1
580 2992 1
581 82 1
581 521 1
581 728 1
581 833 1
581 1286 1
581 1421 1
581 1769 1
581 1991 1
581 2257 1
581 2474 1
581 2705 1
581 2993 1
582 83 1
582 522 1
582 729 1
582 834 1
582 1287 1
582 1600 1
582 1770 1
582 1903 1
582 2258 1
582 2475 1
582 2706 1
582 2994 1
583 84 1
583 523 1
583 730 1
583 835 1
583 1288 1
583 1512 1
583 1771 1
583 2082 1
583 2259 1
583 2476 1
583 2707 1
583 2995 1
584 85 1
584 524 1
584 731 1
584 836 1
584 1289 1
584 1424 1
584 1772 1
584 1994 1
584 2260 1
584 2477 1
584 2708 1
584 2996 1
585 86 1
585 525 1
585 732 1
585 837 1
585 1290 1
585 1336 1
585 1773 1
585 1906 1
585 2261 1
585 2478 1
585 2709 1
585 2997 1
586 87 1
586 526 1
586 733 1
586 838 1
586 1291 1
586 1515 1
586 1774 1
586 2085 1
586 2262 1
586 2479 1
586 2710 1
586 2998 1
587 88 1
587 527 1
587 734 1
587 839 1
587 1292 1
587 1427 1
587 1775 1
587 1997 1
587 2263 1
587 2480 1
587 2711 1
587 2999 1
588 89 1
588 528 1
588 735 1
588 840 1
588 1293 1
588 1339 1
588 1776 1
588 1909 1
588 2264 1
588 2481 1
588 2712 1
588 3000 1
589 90 1
589 529 1
589 736 1
589 841 1
589 1294 1
589 1518 1
589 1777 1
589 2088 1
589 2265 1
589 2482 1
589 2713 1
589 3001 1
590 91 1
590 530 1
590 737 1
590 842 1
590 1295 1
590 1430 1
590 1778 1
590 2000 1
590 2266 1
590 2483 1
590 2714 1
590 3002 1
591 92 1
591 531 1
591 738 1
591 843 1
591 1296 1
591 1342 1
591 1779 1
591 1912 1
591 2267 1
591 2484 1
591 2715 1
591 3003 1
592 93 1
592 532 1
592 739 1
592 844 1
592 1297 1
592 1521 1
592 1780 1
592 2091 1
592 2268 1
592 2485 1
592 2716 1
592 3004 1
593 94 1
593 533 1
593 740 1
593 845 1
593 1298 1
593 1433 1
593 1781 1
593 2003 1
593 2269 1
593 2486 1
593 2717 1
593 3005 1
594 95 1
594 534 1
594 741 1
594 846 1
594 1299 1
594 1345 1
594 1782 1
594 1915 1
594 2270 1
594 2487 1
594 2718 1
594 3006 1
595 96 1
595 268 1
595 742 1
595 847 1
595 1300 1
595 1524 1
595 1783 1
595 2094 1
595 2271 1
595 2488 1
595 2719 1
595 3007 1
596 97 1
596 269 1
596 743 1
596 848 1
596 1301 1
596 1436 1
596 1784 1
596 2006 1
596 2272 1
596 2489 1
596 2720 1
596 3008 1
597 98 1
597 270 1
597 744 1
597 849 1
597 1302 1
597 1348 1
597 1785 1
597 1918 1
597 2273 1
597 2490 1
597 2721 1
597 3009 1
598 99 1
598 271 1
598 745 1
598 850 1
598 1303 1
598 1527 1
598 1786 1
598 2097 1
598 2274 1
598 2491 1
598 2722 1
598 3010 1
599 100 1
599 272 1
599 746 1
599 851 1
599 1304 1
599 1439 1
599 1787 1
599 2009 1
599 2275 1
599 2492 1
599 2723 1
599 3011 1
600 101 1
600 273 1
600 747 1
600 852 1
600 1305 1
600 1351 1
600 1788 1
600 1921 1
600 2276 1
600 2493 1
600 2724 1
600 3012 1
601 102 1
601 274 1
601 748 1
601 853 1
601 1306 1
601 1530 1
601 1789 1
601 2100 1
601 2277 1
601 2494 1
601 2725 1
601 3013 1
602 103 1
602 275 1
602 749 1
602 854 1
602 1307 1
602 1442 1
602 1790 1
602 2012 1
602 2278 1
602 2495 1
602 2726 1
602 3014 1
603 104 1
603 276 1
603 750 1
603 855 1
603 1308 1
603 1354 1
603 1791 1
603 1924 1
603 2279 1
603 2496 1
603 2727 1
603 3015 1
604 105 1
604 277 1
604 751 1
604 856 1
604 1309 1
604 1533 1
604 1792 1
604 2103 1
604 2280 1
604 2497 1
604 2728 1
604 3016 1
605 106 1
605 278 1
605 752 1
605 857 1
605 1310 1
605 1445 1
605 1793 1
605 2015 1
605 2281 1
605 2498 1
605 2729 1
605 3017 1
606 107 1
606 279 1
606 753 1
606 858 1
606 1311 1
606 1357 1
606 1794 1
606 1927 1
606 2282 1
606 2499 1
606 2730 1
606 3018 1
607 108 1
607 280 1
607 754 1
607 859 1
607 1312 1
607 1536 1
607 1795 1
607 2106 1
607 2283 1
607 2500 1
607 2731 1
607 3019 1
608 109 1
608 281 1
608 755 1
608 860 1
608 1313 1
608 1448 1
608 1796 1
608 2018 1
608 2284 1
608 2501 1
608 2732 1
608 3020 1
609 110 1
609 282 1
609 756 1
609 861 1
609 1314 1
609 1360 1
609 1797 1
609 1930 1
609 2285 1
609 2502 1
609 2733 1
609 3021 1
610 111 1
610 283 1
610 757 1
610 862 1
610 1315 1
610 1539 1
610 1798 1
610 2109 1
610 2286 1
610 2503 1
610 2734 1
610 3022 1
611 112 1
611 284 1
611 758 1
611 863 1
611 1316 1
611 1451 1
611 1799 1
611 2021 1
611 2287 1
611 2504 1
611 2735 1
611 3023 1
612 113 1
612 285 1
612 759 1
612 864 1
612 1317 1
612 1363 1
612 1800 1
612 1933 1
612 2288 1
612 2505 1
612 2736 1
612 3024 1
613 114 1
613 286 1
613 760 1
613 865 1
613 1318 1
613 1542 1
613 1801 1
613 2112 1
613 2289 1
613 2506 1
613 2737 1
613 3025 1
614 115 1
614 287 1
614 761 1
614 866 1
614 1319 1
614 1454 1
614 1802 1
614 2024 1
614 2290 1
614 2507 1
614 2738 1
614 3026 1
615 116 1
615 288 1
615 762 1
615 867 1
615 1320 1
615 1366 1
615 1803 1
615 1936 1
615 2291 1
615 2508 1
615 2739 1
615 3027 1
616 117 1
616 289 1
616 763 1
616 868 1
616 1321 1
616 1545 1
616 1804 1
616 2115 1
616 2292 1
616 2509 1
616 2740 1
616 3028 1
617 118 1
617 290 1
617 764 1
617 869 1
617 1322 1
617 1457 1
617 1805 1
617 2027 1
617 2293 1
617 2510 1
617 2741 1
617 3029 1
618 119 1
618 291 1
618 765 1
618 870 1
618 1323 1
618 1369 1
618 1806 1
618 1939 1
618 2294 1
618 2511 1
618 2742 1
618 3030 1
619 120 1
619 292 1
619 766 1
619 871 1
619 1324 1
619 1548 1
619 1807 1
619 2118 1
619 2295 1
619 2512 1
619 2743 1
619 3031 1
620 121 1
620 293 1
620 767 1
620 872 1
620 1325 1
620 1460 1
620 1808 1
620 2030 1
620 2296 1
620 2513 1
620 2744 1
620 3032 1
621 122 1
621 294 1
621 768 1
621 873 1
621 1326 1
621 1372 1
621 1809 1
621 1942 1
621 2297 1
621 2514 1
621 2745 1
621 3033 1
622 123 1
622 295 1
622 769 1
622 874 1
622 1327 1
622 1551 1
622 1810 1
622 2121 1
622 2298 1
622 2515 1
622 2746 1
622 3034 1
623 124 1
623 296 1
623 770 1
623 875 1
623 1328 1
623 1463 1
623 1811 1
623 2033 1
623 2299 1
623 2516 1
623 2747 1
623 3035 1
624 125 1
624 297 1
624 771 1
624 876 1
624 1329 1
624 1375 1
624 1812 1
624 1945 1
624 2300 1
624 2517 1
624 2748 1
624 3036 1
625 126 1
625 298 1
625 772 1
625 877 1
625 1330 1
625 1554 1
625 1813 1
625 2124 1
625 2301 1
625 2518 1
625 2749 1
625 3037 1
626 127 1
626 299 1
626 773 1
626 878 1
626 1331 1
626 1466 1
626 1814 1
626 2036 1
626 2302 1
626 2519 1
626 2750 1
626 3038 1
627 128 1
627 300 1
627 774 1
627 879 1
627 1332 1
627 1378 1
627 1815 1
627 1948 1
627 2303 1
627 2520 1
627 2751 1
627 3039 1
628 129 1
628 301 1
628 775 1
628 880 1
628 1333 1
628 1557 1
628 1816 1
628 2127 1
628 2304 1
628 2521 1
628 2752 1
628 3040 1
629 130 1
629 302 1
629 776 1
629 881 1
629 1334 1
629 1469 1
629 1817 1
629 2039 1
629 2305 1
629 2522 1
629 2753 1
629 3041 1
630 131 1
630 303 1
630 777 1
630 882 1
630 1335 1
630 1381 1
630 1818 1
630 1951 1
630 2306 1
630 2523 1
630 2754 1
630 3042 1
631 132 1
631 304 1
631 778 1
631 883 1
631 1069 1
631 1560 1
631 1819 1
631 2130 1
631 2307 1
631 2524 1
631 2755 1
631 3043 1
632 133 1
632 305 1
632 779 1
632 884 1
632 1070 1
632 1472 1
632 1820 1
632 2042 1
632 2308 1
632 2525 1
632 2756 1
632 3044 1
633 134 1
633 306 1
633 780 1
633 885 1
633 1071 1
633 1384 1
633 1821 1
633 1954 1
633 2309 1
633 2526 1
633 2757 1
633 3045 1
634 135 1
634 307 1
634 781 1
634 886 1
634 1072 1
634 1563 1
634 1822 1
634 2133 1
634 2310 1
634 2527 1
634 2758 1
634 3046 1
635 136 1
635 308 1
635 782 1
635 887 1
635 1073 1
635 1475 1
635 1823 1
635 2045 1
635 2311 1
635 2528 1
635 2759 1
635 3047 1
636 137 1
636 309 1
636 783 1
636 888 1
636 1074 1
636 1387 1
636 1824 1
636 1957 1
636 2312 1
636 2529 1
636 2760 1
636 3048 1
637 138 1
637 310 1
637 784 1
637 889 1
637 1075 1
637 1566 1
637 1825 1
637 2136 1
637 2313 1
637 2530 1
637 2761 1
637 3049 1
638 139 1
638 311 1
638 785 1
638 890 1
638 1076 1
638 1478 1
638 1826 1
638 2048 1
638 2314 1
638 2531 1
638 2762 1
638 3050 1
639 140 1
639 312 1
639 786 1
639 891 1
639 1077 1
639 1390 1
639 1827 1
639 1960 1
639 2315 1
639 2532 1
639 2763 1
639 3051 1
640 141 1
640 313 1
640 787 1
640 892 1
640 1078 1
640 1569 1
640 1828 1
640 1872 1
640 2316 1
640 2533 1
640 2764 1
640 3052 1
641 142 1
641 314 1
641 788 1
641 893 1
641 1079 1
641 1481 1
641 1829 1
641 2051 1
641 2317 1
641 2534 1
641 2765 1
641 3053 1
642 143 1
642 315 1
642 789 1
642 894 1
642 1080 1
642 1393 1
642 1830 1
642 1963 1
642 2318 1
642 2535 1
642 2766 1
642 3054 1
643 144 1
643 316 1
643 790 1
643 895 1
643 1081 1
643 1572 1
643 1831 1
643 1875 1
643 2319 1
643 2536 1
643 2767 1
643 3055 1
644 145 1
644 317 1
644 791 1
644 896 1
644 1082 1
644 1484 1
644 1832 1
644 2054 1
644 2320 1
644 2537 1
644 2768 1
644 3056 1
645 146 1
645 318 1
645 792 1
645 897 1
645 1083 1
645 1396 1
645 1833 1
645 1966 1
645 2321 1
645 2538 1
645 2769 1
645 3057 1
646 147 1
646 319 1
646 793 1
646 898 1
646 1084 1
646 1575 1
646 1834 1
646 1878 1
646 2322 1
646 2539 1
646 2770 1
646 3058 1
647 148 1
647 320 1
647 794 1
647 899 1
647 1085 1
647 1487 1
647 1835 1
647 2057 1
647 2323 1
647 2540 1
647 2771 1
647 3059 1
648 149 1
648 321 1
648 795 1
648 900 1
648 1086 1
648 1399 1
648 1836 1
648 1969 1
648 2324 1
648 2541 1
648 2772 1
648 3060 1
649 150 1
649 322 1
649 796 1
649 901 1
649 1087 1
649 1578 1
649 1837 1
649 1881 1
649 2325 1
649 2542 1
649 2773 1
649 3061 1
650 151 1
650 323 1
650 797 1
650 902 1
650 1088 1
650 1490 1
650 1838 1
650 2060 1
650 2326 1
650 2543 1
650 2774 1
650 3062 1
651 152 1
651 324 1
651 798 1
651 903 1
651 1089 1
651 1402 1
651 1839 1
651 1972 1
651 2327 1
651 2544 1
651 2775 1
651 3063 1
652 153 1
652 325 1
652 799 1
652 904 1
652 1090 1
652 1581 1
652 1840 1
652 1884 1
652 2328 1
652 2545 1
652 2776 1
652 3064 1
653 154 1
653 326 1
653 800 1
653 905 1
653 1091 1
653 1493 1
653 1841 1
653 2063 1
653 2329 1
653 2546 1
653 2777 1
653 3065 1
654 155 1
654 327 1
654 801 1
654 906 1
654 1092 1
654 1405 1
654 1842 1
654 1975 1
654 2330 1
654 2547 1
654 2778 1
654 3066 1
655 156 1
655 328 1
655 535 1
655 907 1
655 1093 1
655 1584 1
655 1843 1
655 1887 1
655 2331 1
655 2548 1
655 2779 1
655 3067 1
656 157 1
656 329 1
656 536 1
656 908 1
656 1094 1
656 1496 1
656 1844 1
656 2066 1
656 2332 1
656 2549 1
656 2780 1
656 3068 1
657 158 1
657 330 1
657 537 1
657 909 1
657 1095 1
657 1408 1
657 1845 1
657 1978 1
657 2333 1
657 2550 1
657 2781 1
657 3069 1
658 159 1
658 331 1
658 538 1
658 910 1
658 1096 1
658 1587 1
658 1846 1
658 1890 1
658 2334 1
658 2551 1
658 2782 1
658 3070 1
659 160 1
659 332 1
659 539 1
659 911 1
659 1097 1
659 1499 1
659 1847 1
659 2069 1
659 2335 1
659 2552 1
659 2783 1
659 3071 1
660 161 1
660 333 1
660 540 1
660 912 1
660 1098 1
660 1411 1
660 1848 1
660 1981 1
660 2336 1
660 2553 1
660 2784 1
660 3072 1
661 162 1
661 334 1
661 541 1
661 913 1
661 1099 1
661 1590 1
661 1849 1
661 1893 1
661 2337 1
661 2554 1
661 2785 1
661 3073 1
662 163 1
662 335 1
662 542 1
662 914 1
662 1100 1
662 1502 1
662 1850 1
662 2072 1
662 2338 1
662 2555 1
662 2786 1
662 3074 1
663 164 1
663 336 1
663 543 1
663 915 1
663 1101 1
663 1414 1
663 1851 1
663 1984 1
663 2339 1
663 2556 1
663 2787 1
663 3075 1
664 165 1
664 337 1
664 544 1
664 916 1
664 1102 1
664 1593 1
664 1852 1
664 1896 1
664 2340 1
664 2557 1
664 2788 1
664 3076 1
665 166 1
665 338 1
665 545 1
665 917 1
665 1103 1
665 1505 1
665 1853 1
665 2075 1
665 2341 1
665 2558 1
665 2789 1
665 3077 1
666 167 1
666 339 1
666 546 1
666 918 1
666 1104 1
666 1417 1
666 1854 1
666 1987 1
666 2342 1
666 2559 1
666 2790 1
666 3078 1
667 168 1
667 340 1
667 547 1
667 919 1
667 1105 1
667 1596 1
667 1855 1
667 1899 1
667 2343 1
667 2560 1
667 2791 1
667 3079 1
668 169 1
668 341 1
668 548 1
668 920 1
668 1106 1
668 1508 1
668 1856 1
668 2078 1
668 2344 1
668 2561 1
668 2792 1
668 3080 1
669 170 1
669 342 1
669 549 1
669 921 1
669 1107 1
669 1420 1
669 1857 1
669 1990 1
669 2345 1
669 2562 1
669 2793 1
669 3081 1
670 171 1
670 343 1
670 550 1
670 922 1
670 1108 1
670 1599 1
670 1858 1
670 1902 1
670 2346 1
670 2563 1
670 2794 1
670 3082 1
671 172 1
671 344 1
671 551 1
671 923 1
671 1109 1
671 1511 1
671 1859 1
671 2081 1
671 2347 1
671 2564 1
671 2795 1
671 3083 1
672 173 1
672 345 1
672 552 1
672 924 1
672 1110 1
672 1423 1
672 1860 1
672 1993 1
672 2348 1
672 2565 1
672 2796 1
672 3084 1
673 174 1
673 346 1
673 553 1
673 925 1
673 1111 1
673 1602 1
673 1861 1
673 1905 1
673 2349 1
673 2566 1
673 2797 1
673 3085 1
674 175 1
674 347 1
674 554 1
674 926 1
674 1112 1
674 1514 1
674 1862 1
674 2084 1
674 2350 1
674 2567 1
674 2798 1
674 3086 1
675 176 1
675 348 1
675 555 1
675 927 1
675 1113 1
675 1426 1
675 1863 1
675 1996 1
675 2351 1
675 2568 1
675 2799 1
675 3087 1
676 177 1
676 349 1
676 556 1
676 928 1
676 1114 1
676 1338 1
676 1864 1
676 1908 1
676 2352 1
676 2569 1
676 2800 1
676 3088 1
677 178 1
677 350 1
677 557 1
677 929 1
677 1115 1
677 1517 1
677 1865 1
677 2087 1
677 2353 1
677 2570 1
677 2801 1
677 3089 1
678 179 1
678 351 1
678 558 1
678 930 1
678 1116 1
678 1429 1
678 1866 1
678 1999 1
678 2354 1
678 2571 1
678 2802 1
678 3090 1
679 180 1
679 352 1
679 559 1
679 931 1
679 1117 1
679 1341 1
679 1867 1
679 1911 1
679 2355 1
679 2572 1
679 2803 1
679 3091 1
680 181 1
680 353 1
680 560 1
680 932 1
680 1118 1
680 1520 1
680 1868 1
680 2090 1
680 2356 1
680 2573 1
680 2804 1
680 3092 1
681 182 1
681 354 1
681 561 1
681 933 1
681 1119 1
681 1432 1
681 1869 1
681 2002 1
681 2357 1
681 2574 1
681 2805 1
681 3093 1
682 183 1
682 355 1
682 562 1
682 934 1
682 1120 1
682 1344 1
682 1603 1
682 1914 1
682 2358 1
682 2575 1
682 2806 1
682 3094 1
683 184 1
683 356 1
683 563 1
683 935 1
683 1121 1
683 1523 1
683 1604 1
683 2093 1
683 2359 1
683 2576 1
683 2807 1
683 3095 1
684 185 1
684 357 1
684 564 1
684 936 1
684 1122 1
684 1435 1
684 1605 1
684 2005 1
684 2360 1
684 2577 1
684 2808 1
684 3096 1
685 186 1
685 358 1
685 565 1
685 937 1
685 1123 1
685 1347 1
685 1606 1
685 1917 1
685 2361 1
685 2578 1
685 2809 1
685 3097 1
686 187 1
686 359 1
686 566 1
686 938 1
686 1124 1
686 1526 1
686 1607 1
686 2096 1
686 2362 1
686 2579 1
686 2810 1
686 3098 1
687 188 1
687 360 1
687 567 1
687 939 1
687 1125 1
687 1438 1
687 1608 1
687 2008 1
687 2363 1
687 2580 1
687 2811 1
687 3099 1
688 189 1
688 361 1
688 568 1
688 940 1
688 1126 1
688 1350 1
688 1609 1
688 1920 1
688 2364 1
688 2581 1
688 2812 1
688 3100 1
689 190 1
689 362 1
689 569 1
689 941 1
689 1127 1
689 1529 1
689 1610 1
689 2099 1
689 2365 1
689 2582 1
689 2813 1
689 3101 1
690 191 1
690 363 1
690 570 1
690 942 1
690 1128 1
690 1441 1
690 1611 1
690 2011 1
690 2366 1
690 2583 1
690 2814 1
690 3102 1
691 192 1
691 364 1
691 571 1
691 943 1
691 1129 1
691 1353 1
691 1612 1
691 1923 1
691 2367 1
691 2584 1
691 2815 1
691 3103 1
692 193 1
692 365 1
692 572 1
692 944 1
692 1130 1
692 1532 1
692 1613 1
692 2102 1
692 2368 1
692 2585 1
692 2816 1
692 3104 1
693 194 1
693 366 1
693 573 1
693 945 1
693 1131 1
693 1444 1
693 1614 1
693 2014 1
693 2369 1
693 2586 1
693 2817 1
693 3105 1
694 195 1
694 367 1
694 574 1
694 946 1
694 1132 1
694 1356 1
694 1615 1
694 1926 1
694 2370 1
694 2587 1
694 2818 1
694 3106 1
695 196 1
695 368 1
695 575 1
695 947 1
695 1133 1
695 1535 1
695 1616 1
695 2105 1
695 2371 1
695 2588 1
695 2819 1
695 3107 1
696 197 1
696 369 1
696 576 1
696 948 1
696 1134 1
696 1447 1
696 1617 1
696 2017 1
696 2372 1
696 2589 1
696 2820 1
696 3108 1
697 198 1
697 370 1
697 577 1
697 949 1
697 1135 1
697 1359 1
697 1618 1
697 1929 1
697 2373 1
697 2590 1
697 2821 1
697 3109 1
698 199 1
698 371 1
698 578 1
698 950 1
698 1136 1
698 1538 1
698 1619 1
698 2108 1
698 2374 1
698 2591 1
698 2822 1
698 3110 1
699 200 1
699 372 1
699 579 1
699 951 1
699 1137 1
699 1450 1
699 1620 1
699 2020 1
699 2375 1
699 2592 1
699 2823 1
699 3111 1
700 201 1
700 373 1
700 580 1
700 952 1
700 1138 1
700 1362 1
700 1621 1
700 1932 1
700 2376 1
700 2593 1
700 2824 1
700 3112 1
701 202 1
701 374 1
701 581 1
701 953 1
701 1139 1
701 1541 1
701 1622 1
701 2111 1
701 2377 1
701 2594 1
701 2825 1
701 3113 1
702 203 1
702 375 1
702 582 1
702 954 1
702 1140 1
702 1453 1
702 1623 1
702 2023 1
702 2378 1
702 2595 1
702 2826 1
702 3114 1
703 204 1
703 376 1
703 583 1
703 955 1
703 1141 1
703 1365 1
703 1624 1
703 1935 1
703 2379 1
703 2596 1
703 2827 1
703 3115 1
704 205 1
704 377 1
704 584 1
704 956 1
704 1142 1
704 1544 1
704 1625 1
704 2114 1
704 2380 1
704 2597 1
704 2828 1
704 3116 1
705 206 1
705 378 1
705 585 1
705 957 1
705 1143 1
705 1456 1
705 1626 1
705 2026 1
705 2381 1
705 2598 1
705 2829 1
705 3117 1
706 207 1
706 379 1
706 586 1
706 958 1
706 1144 1
706 1368 1
706 1627 1
706 1938 1
706 2382 1
706 2599 1
706 2830 1
706 3118 1
707 208 1
707 380 1
707 587 1
707 959 1
707 1145 1
707 1547 1
707 1628 1
707 2117 1
707 2383 1
707 2600 1
707 2831 1
707 3119 1
708 209 1
708 381 1
708 588 1
708 960 1
708 1146 1
708 1459 1
708 1629 1
708 2029 1
708 2384 1
708 2601 1
708 2832 1
708 3120 1
709 210 1
709 382 1
709 589 1
709 961 1
709 1147 1
709 1371 1
709 1630 1
709 1941 1
709 2385 1
709 2602 1
709 2833 1
709 3121 1
710 211 1
710 383 1
710 590 1
710 962 1
710 1148 1
710 1550 1
710 1631 1
710 2120 1
710 2386 1
710 2603 1
710 2834 1
710 3122 1
711 212 1
711 384 1
711 591 1
711 963 1
711 1149 1
711 1462 1
711 1632 1
711 2032 1
711 2387 1
711 2604 1
711 2835 1
711 3123 1
712 213 1
712 385 1
712 592 1
712 964 1
712 1150 1
712 1374 1
712 1633 1
712 1944 1
712 2388 1
712 2605 1
712 2836 1
712 3124 1
713 214 1
713 386 1
713 593 1
713 965 1
713 1151 1
713 1553 1
713 1634 1
713 2123 1
713 2389 1
713 2606 1
713 2837 1
713 3125 1
714 215 1
714 387 1
714 594 1
714 966 1
714 1152 1
714 1465 1
714 1635 1
714 2035 1
714 2390 1
714 2607 1
714 2838 1
714 3126 1
715 216 1
715 388 1
715 595 1
715 967 1
715 1153 1
715 1377 1
715 1636 1
715 1947 1
715 2391 1
715 2608 1
715 2839 1
715 3127 1
716 217 1
716 389 1
716 596 1
716 968 1
716 1154 1
716 1556 1
716 1637 1
716 2126 1
716 2392 1
716 2609 1
716 2840 1
716 3128 1
717 218 1
717 390 1
717 597 1
717 969 1
717 1155 1
717 1468 1
717 1638 1
717 2038 1
717 2393 1
717 2610 1
717 2841 1
717 3129 1
718 219 1
718 391 1
718 598 1
718 970 1
718 1156 1
718 1380 1
718 1639 1
718 1950 1
718 2394 1
718 2611 1
718 2842 1
718 3130 1
719 220 1
719 392 1
719 599 1
719 971 1
719 1157 1
719 1559 1
719 1640 1
719 2129 1
719 2395 1
719 2612 1
719 2843 1
719 3131 1
720 221 1
720 393 1
720 600 1
720 972 1
720 1158 1
720 1471 1
720 1641 1
720 2041 1
720 2396 1
720 2613 1
720 2844 1
720 3132 1
721 222 1
721 394 1
721 601 1
721 973 1
721 1159 1
721 1383 1
721 1642 1
721 1953 1
721 2397 1
721 2614 1
721 2845 1
721 3133 1
722 223 1
722 395 1
722 602 1
722 974 1
722 1160 1
722 1562 1
722 1643 1
722 2132 1
722 2398 1
722 2615 1
722 2846 1
722 3134 1
723 224 1
723 396 1
723 603 1
723 975 1
723 1161 1
723 1474 1
723 1644 1
723 2044 1
723 2399 1
723 2616 1
723 2847 1
723 3135 1
724 225 1
724 397 1
724 604 1
724 976 1
724 1162 1
724 1386 1
724 1645 1
724 1956 1
724 2400 1
724 2617 1
724 2848 1
724 3136 1
725 226 1
725 398 1
725 605 1
725 977 1
725 1163 1
725 1565 1
725 1646 1
725 2135 1
725 2401 1
725 2618 1
725 2849 1
725 3137 1
726 227 1
726 399 1
726 606 1
726 978 1
726 1164 1
726 1477 1
726 1647 1
726 2047 1
726 2402 1
726 2619 1
726 2850 1
726 3138 1
727 228 1
727 400 1
727 607 1
727 979 1
727 1165 1
727 1389 1
727 1648 1
727 1959 1
727 2403 1
727 2620 1
727 2851 1
727 3139 1
728 229 1
728 401 1
728 608 1
728 980 1
728 1166 1
728 1568 1
728 1649 1
728 1871 1
728 2137 1
728 2621 1
728 2852 1
728 3140 1
729 230 1
729 402 1
729 609 1
729 981 1
729 1167 1
729 1480 1
729 1650 1
729 2050 1
729 2138 1
729 2622 1
729 2853 1
729 3141 1
730 231 1
730 403 1
730 610 1
730 982 1
730 1168 1
730 1392 1
730 1651 1
730 1962 1
730 2139 1
730 2623 1
730 2854 1
730 3142 1
731 232 1
731 404 1
731 611 1
731 983 1
731 1169 1
731 1571 1
731 1652 1
731 1874 1
731 2140 1
731 2624 1
731 2855 1
731 3143 1
732 233 1
732 405 1
732 612 1
732 984 1
732 1170 1
732 1483 1
732 1653 1
732 2053 1
732 2141 1
732 2625 1
732 2856 1
732 3144 1
733 234 1
733 406 1
733 613 1
733 985 1
733 1171 1
733 1395 1
733 1654 1
733 1965 1
733 2142 1
733 2626 1
733 2857 1
733 3145 1
734 235 1
734 407 1
734 614 1
734 986 1
734 1172 1
734 1574 1
734 1655 1
734 1877 1
734 2143 1
734 2627 1
734 2858 1
734 3146 1
735 236 1
735 408 1
735 615 1
735 987 1
735 1173 1
735 1486 1
735 1656 1
735 2056 1
735 2144 1
735 2628 1
735 2859 1
735 3147 1
736 237 1
736 409 1
736 616 1
736 988 1
736 1174 1
736 1398 1
736 1657 1
736 1968 1
736 2145 1
736 2629 1
736 2860 1
736 3148 1
737 238 1
737 410 1
737 617 1
737 989 1
737 1175 1
737 1577 1
737 1658 1
737 1880 1
737 2146 1
737 2630 1
737 2861 1
737 3149 1
738 239 1
738 411 1
738 618 1
738 990 1
738 1176 1
738 1489 1
738 1659 1
738 2059 1
738 2147 1
738 2631 1
738 2862 1
738 3150 1
739 240 1
739 412 1
739 619 1
739 991 1
739 1177 1
739 1401 1
739 1660 1
739 1971 1
739 2148 1
739 2632 1
739 2863 1
739 3151 1
740 241 1
740 413 1
740 620 1
740 992 1
740 1178 1
740 1580 1
740 1661 1
740 1883 1
740 2149 1
740 2633 1
740 2864 1
740 3152 1
741 242 1
741 414 1
741 621 1
741 993 1
741 1179 1
741 1492 1
741 1662 1
741 2062 1
741 2150 1
741 2634 1
741 2865 1
741 3153 1
742 243 1
742 415 1
742 622 1
742 994 1
742 1180 1
742 1404 1
742 1663 1
742 1974 1
742 2151 1
742 2635 1
742 2866 1
742 3154 1
743 244 1
743 416 1
743 623 1
743 995 1
743 1181 1
743 1583 1
743 1664 1
743 1886 1
743 2152 1
743 2636 1
743 2867 1
743 3155 1
744 245 1
744 417 1
744 624 1
744 996 1
744 1182 1
744 1495 1
744 1665 1
744 2065 1
744 2153 1
744 2637 1
744 2868 1
744 3156 1
745 246 1
745 418 1
745 625 1
745 997 1
745 1183 1
745 1407 1
745 1666 1
745 1977 1
745 2154 1
745 2638 1
745 2869 1
745 3157 1
746 247 1
746 419 1
746 626 1
746 998 1
746 1184 1
746 1586 1
746 1667 1
746 1889 1
746 2155 1
746 2639 1
746 2870 1
746 3158 1
747 248 1
747 420 1
747 627 1
747 999 1
747 1185 1
747 1498 1
747 1668 1
747 2068 1
747 2156 1
747 2640 1
747 2871 1
747 3159 1
748 249 1
748 421 1
748 628 1
748 1000 1
748 1186 1
748 1410 1
748 1669 1
748 1980 1
748 2157 1
748 2641 1
748 2872 1
748 3160 1
749 250 1
749 422 1
749 629 1
749 1001 1
749 1187 1
749 1589 1
749 1670 1
749 1892 1
749 2158 1
749 2642 1
749 2873 1
749 3161 1
750 251 1
750 423 1
750 630 1
750 1002 1
750 1188 1
750 1501 1
750 1671 1
750 2071 1
750 2159 1
750 2643 1
750 2874 1
750 3162 1
751 252 1
751 424 1
751 631 1
751 1003 1
751 1189 1
751 1413 1
751 1672 1
751 1983 1
751 2160 1
751 2644 1
751 2875 1
751 3163 1
752 253 1
752 425 1
752 632 1
752 1004 1
752 1190 1
752 1592 1
752 1673 1
752 1895 1
752 2161 1
752 2645 1
752 2876 1
752 3164 1
753 254 1
753 426 1
753 633 1
753 1005 1
753 1191 1
753 1504 1
753 1674 1
753 2074 1
753 2162 1
753 2646 1
753 2877 1
753 3165 1
754 255 1
754 427 1
754 634 1
754 1006 1
754 1192 1
754 1416 1
754 1675 1
754 1986 1
754 2163 1
754 2647 1
754 2878 1
754 3166 1
755 256 1
755 428 1
755 635 1
755 1007 1
755 1193 1
755 1595 1
755 1676 1
755 1898 1
755 2164 1
755 2648 1
755 2879 1
755 3167 1
756 257 1
756 429 1
756 636 1
756 1008 1
756 1194 1
756 1507 1
756 1677 1
756 2077 1
756 2165 1
756 2649 1
756 2880 1
756 3168 1
757 258 1
757 430 1
757 637 1
757 1009 1
757 1195 1
757 1419 1
757 1678 1
757 1989 1
757 2166 1
757 2650 1
757 2881 1
757 3169 1
758 259 1
758 431 1
758 638 1
758 1010 1
758 1196 1
758 1598 1
758 1679 1
758 1901 1
758 2167 1
758 2651 1
758 2882 1
758 3170 1
759 260 1
759 432 1
759 639 1
759 1011 1
759 1197 1
759 1510 1
759 1680 1
759 2080 1
759 2168 1
759 2652 1
759 2883 1
759 3171 1
760 261 1
760 433 1
760 640 1
760 1012 1
760 1198 1
760 1422 1
760 1681 1
760 1992 1
760 2169 1
760 2653 1
760 2884 1
760 3172 1
761 262 1
761 434 1
761 641 1
761 1013 1
761 1199 1
761 1601 1
761 1682 1
761 1904 1
761 2170 1
761 2654 1
761 2885 1
761 3173 1
762 263 1
762 435 1
762 642 1
762 1014 1
762 1200 1
762 1513 1
762 1683 1
762 2083 1
762 2171 1
762 2655 1
762 2886 1
762 3174 1
763 264 1
763 436 1
763 643 1
763 1015 1
763 1201 1
763 1425 1
763 1684 1
763 1995 1
763 2172 1
763 2656 1
763 2887 1
763 3175 1
764 265 1
764 437 1
764 644 1
764 1016 1
764 1202 1
764 1337 1
764 1685 1
764 1907 1
764 2173 1
764 2657 1
764 2888 1
764 3176 1
765 266 1
765 438 1
765 645 1
765 1017 1
765 1203 1
765 1516 1
765 1686 1
765 2086 1
765 2174 1
765 2658 1
765 2889 1
765 3177 1
766 267 1
766 439 1
766 646 1
766 1018 1
766 1204 1
766 1428 1
766 1687 1
766 1998 1
766 2175 1
766 2659 1
766 2890 1
766 3178 1
767 1 1
767 440 1
767 647 1
767 1019 1
767 1205 1
767 1340 1
767 1688 1
767 1910 1
767 2176 1
767 2660 1
767 2891 1
767 3179 1
768 2 1
768 441 1
768 648 1
768 1020 1
768 1206 1
768 1519 1
768 1689 1
768 2089 1
768 2177 1
768 2661 1
768 2892 1
768 3180 1
769 3 1
769 442 1
769 649 1
769 1021 1
769 1207 1
769 1431 1
769 1690 1
769 2001 1
769 2178 1
769 2662 1
769 2893 1
769 3181 1
770 4 1
770 443 1
770 650 1
770 1022 1
770 1208 1
770 1343 1
770 1691 1
770 1913 1
770 2179 1
770 2663 1
770 2894 1
770 3182 1
771 5 1
771 444 1
771 651 1
771 1023 1
771 1209 1
771 1522 1
771 1692 1
771 2092 1
771 2180 1
771 2664 1
771 2895 1
771 3183 1
772 6 1
772 445 1
772 652 1
772 1024 1
772 1210 1
772 1434 1
772 1693 1
772 2004 1
772 2181 1
772 2665 1
772 2896 1
772 3184 1
773 7 1
773 446 1
773 653 1
773 1025 1
773 1211 1
773 1346 1
773 1694 1
773 1916 1
773 2182 1
773 2666 1
773 2897 1
773 3185 1
774 8 1
774 447 1
774 654 1
774 1026 1
774 1212 1
774 1525 1
774 1695 1
774 2095 1
774 2183 1
774 2667 1
774 2898 1
774 3186 1
775 9 1
775 448 1
775 655 1
775 1027 1
775 1213 1
775 1437 1
775 1696 1
775 2007 1
775 2184 1
775 2668 1
775 2899 1
775 3187 1
776 10 1
776 449 1
776 656 1
776 1028 1
776 1214 1
776 1349 1
776 1697 1
776 1919 1
776 2185 1
776 2669 1
776 2900 1
776 3188 1
777 11 1
777 450 1
777 657 1
777 1029 1
777 1215 1
777 1528 1
777 1698 1
777 2098 1
777 2186 1
777 2670 1
777 2901 1
777 3189 1
778 12 1
778 451 1
778 658 1
778 1030 1
778 1216 1
778 1440 1
778 1699 1
778 2010 1
778 2187 1
778 2404 1
778 2902 1
778 3190 1
779 13 1
779 452 1
779 659 1
779 1031 1
779 1217 1
779 1352 1
779 1700 1
779 1922 1
779 2188 1
779 2405 1
779 2903 1
779 3191 1
780 14 1
780 453 1
780 660 1
780 1032 1
780 1218 1
780 1531 1
780 1701 1
780 2101 1
780 2189 1
780 2406 1
780 2904 1
780 3192 1
781 15 1
781 454 1
781 661 1
781 1033 1
781 1219 1
781 1443 1
781 1702 1
781 2013 1
781 2190 1
781 2407 1
781 2905 1
781 3193 1
782 16 1
782 455 1
782 662 1
782 1034 1
782 1220 1
782 1355 1
782 1703 1
782 1925 1
782 2191 1
782 2408 1
782 2906 1
782 3194 1
783 17 1
783 456 1
783 663 1
783 1035 1
783 1221 1
783 1534 1
783 1704 1
783 2104 1
783 2192 1
783 2409 1
783 2907 1
783 3195 1
784 18 1
784 457 1
784 664 1
784 1036 1
784 1222 1
784 1446 1
784 1705 1
784 2016 1
784 2193 1
784 2410 1
784 2908 1
784 3196 1
785 19 1
785 458 1
785 665 1
785 1037 1
785 1223 1
785 1358 1
785 1706 1
785 1928 1
785 2194 1
785 2411 1
785 2909 1
785 3197 1
786 20 1
786 459 1
786 666 1
786 1038 1
786 1224 1
786 1537 1
786 1707 1
786 2107 1
786 2195 1
786 2412 1
786 2910 1
786 3198 1
787 21 1
787 460 1
787 667 1
787 1039 1
787 1225 1
787 1449 1
787 1708 1
787 2019 1
787 2196 1
787 2413 1
787 2911 1
787 3199 1
788 22 1
788 461 1
788 668 1
788 1040 1
788 1226 1
788 1361 1
788 1709 1
788 1931 1
788 2197 1
788 2414 1
788 2912 1
788 3200 1
789 23 1
789 462 1
789 669 1
789 1041 1
789 1227 1
789 1540 1
789 1710 1
789 2110 1
789 2198 1
789 2415 1
789 2913 1
789 3201 1
790 24 1
790 463 1
790 670 1
790 1042 1
790 1228 1
790 1452 1
790 1711 1
790 2022 1
790 2199 1
790 2416 1
790 2914 1
790 3202 1
791 25 1
791 464 1
791 671 1
791 1043 1
791 1229 1
791 1364 1
791 1712 1
791 1934 1
791 2200 1
791 2417 1
791 2915 1
791 3203 1
792 26 1
792 465 1
792 672 1
792 1044 1
792 1230 1
792 1543 1
792 1713 1
792 2113 1
792 2201 1
792 2418 1
792 2916 1
792 3204 1
793 27 1
793 466 1
793 673 1
793 1045 1
793 1231 1
793 1455 1
793 1714 1
793 2025 1
793 2202 1
793 2419 1
793 2917 1
793 2938 1
794 28 1
794 467 1
794 674 1
794 1046 1
794 1232 1
794 1367 1
794 1715 1
794 1937 1
794 2203 1
794 2420 1
794 2918 1
794 2939 1
795 29 1
795 468 1
795 675 1
795 1047 1
795 1233 1
795 1546 1
795 1716 1
795 2116 1
795 2204 1
795 2421 1
795 2919 1
795 2940 1
796 30 1
796 469 1
796 676 1
796 1048 1
796 1234 1
796 1458 1
796 1717 1
796 2028 1
796 2205 1
796 2422 1
796 2920 1
796 2941 1
797 31 1
797 470 1
797 677 1
797 1049 1
797 1235 1
797 1370 1
797 1718 1
797 1940 1
797 2206 1
797 2423 1
797 2921 1
797 2942 1
798 32 1
798 471 1
798 678 1
798 1050 1
798 1236 1
798 1549 1
798 1719 1
798 2119 1
798 2207 1
798 2424 1
798 2922 1
798 2943 1
799 33 1
799 472 1
799 679 1
799 1051 1
799 1237 1
799 1461 1
799 1720 1
799 2031 1
799 2208 1
799 2425 1
799 2923 1
799 2944 1
800 34 1
800 473 1
800 680 1
800 1052 1
800 1238 1
800 1373 1
800 1721 1
800 1943 1
800 2209 1
800 2426 1
800 2924 1
800 2945 1
801 35 1
801 474 1
801 681 1
801 1053 1
801 1239 1
801 1552 1
801 1722 1
801 2122 1
801 2210 1
801 2427 1
801 2925 1
801 2946 1
