%%MatrixMarket matrix coordinate integer general
%
63 252 756
1 17 1
1 30 1
1 58 1
1 79 1
1 103 1
1 118 1
1 139 1
1 151 1
1 176 1
1 195 1
1 220 1
1 235 1
2 18 1
2 38 1
2 59 1
2 80 1
2 104 1
2 119 1
2 140 1
2 152 1
2 177 1
2 203 1
2 221 1
2 236 1
3 19 1
3 25 1
3 60 1
3 81 1
3 105 1
3 120 1
3 141 1
3 153 1
3 178 1
3 190 1
3 222 1
3 237 1
4 20 1
4 33 1
4 61 1
4 82 1
4 85 1
4 121 1
4 142 1
4 154 1
4 179 1
4 198 1
4 223 1
4 238 1
5 21 1
5 41 1
5 62 1
5 83 1
5 86 1
5 122 1
5 143 1
5 155 1
5 180 1
5 206 1
5 224 1
5 239 1
6 1 1
6 28 1
6 63 1
6 84 1
6 87 1
6 123 1
6 144 1
6 156 1
6 181 1
6 193 1
6 225 1
6 240 1
7 2 1
7 36 1
7 43 1
7 64 1
7 88 1
7 124 1
7 145 1
7 157 1
7 182 1
7 201 1
7 226 1
7 241 1
8 3 1
8 23 1
8 44 1
8 65 1
8 89 1
8 125 1
8 146 1
8 158 1
8 183 1
8 209 1
8 227 1
8 242 1
9 4 1
9 31 1
9 45 1
9 66 1
9 90 1
9 126 1
9 147 1
9 159 1
9 184 1
9 196 1
9 228 1
9 243 1
10 5 1
10 39 1
10 46 1
10 67 1
10 91 1
10 106 1
10 127 1
10 160 1
10 185 1
10 204 1
10 229 1
10 244 1
11 6 1
11 26 1
11 47 1
11 68 1
11 92 1
11 107 1
11 128 1
11 161 1
11 186 1
11 191 1
11 230 1
11 245 1
12 7 1
12 34 1
12 48 1
12 69 1
12 93 1
12 108 1
12 129 1
12 162 1
12 187 1
12 199 1
12 231 1
12 246 1
13 8 1
13 42 1
13 49 1
13 70 1
13 94 1
13 109 1
13 130 1
13 163 1
13 188 1
13 207 1
13 211 1
13 247 1
14 9 1
14 29 1
14 50 1
14 71 1
14 95 1
14 110 1
14 131 1
14 164 1
14 189 1
14 194 1
14 212 1
14 248 1
15 10 1
15 37 1
15 51 1
15 72 1
15 96 1
15 111 1
15 132 1
15 165 1
15 169 1
15 202 1
15 213 1
15 249 1
16 11 1
16 24 1
16 52 1
16 73 1
16 97 1
16 112 1
16 133 1
16 166 1
16 170 1
16 210 1
16 214 1
16 250 1
17 12 1
17 32 1
17 53 1
17 74 1
17 98 1
17 113 1
17 134 1
17 167 1
17 171 1
17 197 1
17 215 1
17 251 1
18 13 1
18 40 1
18 54 1
18 75 1
18 99 1
18 114 1
18 135 1
18 168 1
18 172 1
18 205 1
18 216 1
18 252 1
19 14 1
19 27 1
19 55 1
19 76 1
19 100 1
19 115 1
19 136 1
19 148 1
19 173 1
19 192 1
19 217 1
19 232 1
20 15 1
20 35 1
20 56 1
20 77 1
20 101 1
20 116 1
20 137 1
20 149 1
20 174 1
20 200 1
20 218 1
20 233 1
21 16 1
21 22 1
21 57 1
21 78 1
21 102 1
21 117 1
21 138 1
21 150 1
21 175 1
21 208 1
21 219 1
21 234 1
22 13 1
22 38 1
22 51 1
22 79 1
22 100 1
22 124 1
22 130 1
22 160 1
22 172 1
22 197 1
22 216 1
22 241 1
23 14 1
23 39 1
23 59 1
23 80 1
23 101 1
23 125 1
23 131 1
23 161 1
23 173 1
23 198 1
23 224 1
23 242 1
24 15 1
24 40 1
24 46 1
24 81 1
24 102 1
24 126 1
24 132 1
24 162 1
24 174 1
24 199 1
24 211 1
24 243 1
25 16 1
25 41 1
25 54 1
25 82 1
25 103 1
25 106 1
25 133 1
25 163 1
25 175 1
25 200 1
25 219 1
25 244 1
26 17 1
26 42 1
26 62 1
26 83 1
26 104 1
26 107 1
26 134 1
26 164 1
26 176 1
26 201 1
26 227 1
26 245 1
27 18 1
27 22 1
27 49 1
27 84 1
27 105 1
27 108 1
27 135 1
27 165 1
27 177 1
27 202 1
27 214 1
27 246 1
28 19 1
28 23 1
28 57 1
28 64 1
28 85 1
28 109 1
28 136 1
28 166 1
28 178 1
28 203 1
28 222 1
28 247 1
29 20 1
29 24 1
29 44 1
29 65 1
29 86 1
29 110 1
29 137 1
29 167 1
29 179 1
29 204 1
29 230 1
29 248 1
30 21 1
30 25 1
30 52 1
30 66 1
30 87 1
30 111 1
30 138 1
30 168 1
30 180 1
30 205 1
30 217 1
30 249 1
31 1 1
31 26 1
31 60 1
31 67 1
31 88 1
31 112 1
31 139 1
31 148 1
31 181 1
31 206 1
31 225 1
31 250 1
32 2 1
32 27 1
32 47 1
32 68 1
32 89 1
32 113 1
32 140 1
32 149 1
32 182 1
32 207 1
32 212 1
32 251 1
33 3 1
33 28 1
33 55 1
33 69 1
33 90 1
33 114 1
33 141 1
33 150 1
33 183 1
33 208 1
33 220 1
33 252 1
34 4 1
34 29 1
34 63 1
34 70 1
34 91 1
34 115 1
34 142 1
34 151 1
34 184 1
34 209 1
34 228 1
34 232 1
35 5 1
35 30 1
35 50 1
35 71 1
35 92 1
35 116 1
35 143 1
35 152 1
35 185 1
35 210 1
35 215 1
35 233 1
36 6 1
36 31 1
36 58 1
36 72 1
36 93 1
36 117 1
36 144 1
36 153 1
36 186 1
36 190 1
36 223 1
36 234 1
37 7 1
37 32 1
37 45 1
37 73 1
37 94 1
37 118 1
37 145 1
37 154 1
37 187 1
37 191 1
37 231 1
37 235 1
38 8 1
38 33 1
38 53 1
38 74 1
38 95 1
38 119 1
38 146 1
38 155 1
38 188 1
38 192 1
38 218 1
38 236 1
39 9 1
39 34 1
39 61 1
39 75 1
39 96 1
39 120 1
39 147 1
39 156 1
39 189 1
39 193 1
39 226 1
39 237 1
40 10 1
40 35 1
40 48 1
40 76 1
40 97 1
40 121 1
40 127 1
40 157 1
40 169 1
40 194 1
40 213 1
40 238 1
41 11 1
41 36 1
41 56 1
41 77 1
41 98 1
41 122 1
41 128 1
41 158 1
41 170 1
41 195 1
41 221 1
41 239 1
42 12 1
42 37 1
42 43 1
42 78 1
42 99 1
42 123 1
42 129 1
42 159 1
42 171 1
42 196 1
42 229 1
42 240 1
43 19 1
43 34 1
43 59 1
43 72 1
43 100 1
43 121 1
43 136 1
43 151 1
43 181 1
43 193 1
43 218 1
43 237 1
44 20 1
44 35 1
44 60 1
44 80 1
44 101 1
44 122 1
44 137 1
44 152 1
44 182 1
44 194 1
44 219 1
44 245 1
45 21 1
45 36 1
45 61 1
45 67 1
45 102 1
45 123 1
45 138 1
45 153 1
45 183 1
45 195 1
45 220 1
45 232 1
46 1 1
46 37 1
46 62 1
46 75 1
46 103 1
46 124 1
46 139 1
46 154 1
46 184 1
46 196 1
46 221 1
46 240 1
47 2 1
47 38 1
47 63 1
47 83 1
47 104 1
47 125 1
47 140 1
47 155 1
47 185 1
47 197 1
47 222 1
47 248 1
48 3 1
48 39 1
48 43 1
48 70 1
48 105 1
48 126 1
48 141 1
48 156 1
48 186 1
48 198 1
48 223 1
48 235 1
49 4 1
49 40 1
49 44 1
49 78 1
49 85 1
49 106 1
49 142 1
49 157 1
49 187 1
49 199 1
49 224 1
49 243 1
50 5 1
50 41 1
50 45 1
50 65 1
50 86 1
50 107 1
50 143 1
50 158 1
50 188 1
50 200 1
50 225 1
50 251 1
51 6 1
51 42 1
51 46 1
51 73 1
51 87 1
51 108 1
51 144 1
51 159 1
51 189 1
51 201 1
51 226 1
51 238 1
52 7 1
52 22 1
52 47 1
52 81 1
52 88 1
52 109 1
52 145 1
52 160 1
52 169 1
52 202 1
52 227 1
52 246 1
53 8 1
53 23 1
53 48 1
53 68 1
53 89 1
53 110 1
53 146 1
53 161 1
53 170 1
53 203 1
53 228 1
53 233 1
54 9 1
54 24 1
54 49 1
54 76 1
54 90 1
54 111 1
54 147 1
54 162 1
54 171 1
54 204 1
54 229 1
54 241 1
55 10 1
55 25 1
55 50 1
55 84 1
55 91 1
55 112 1
55 127 1
55 163 1
55 172 1
55 205 1
55 230 1
55 249 1
56 11 1
56 26 1
56 51 1
56 71 1
56 92 1
56 113 1
56 128 1
56 164 1
56 173 1
56 206 1
56 231 1
56 236 1
57 12 1
57 27 1
57 52 1
57 79 1
57 93 1
57 114 1
57 129 1
57 165 1
57 174 1
57 207 1
57 211 1
57 244 1
58 13 1
58 28 1
58 53 1
58 66 1
58 94 1
58 115 1
58 130 1
58 166 1
58 175 1
58 208 1
58 212 1
58 252 1
59 14 1
59 29 1
59 54 1
59 74 1
59 95 1
59 116 1
59 131 1
59 167 1
59 176 1
59 209 1
59 213 1
59 239 1
60 15 1
60 30 1
60 55 1
60 82 1
60 96 1
60 117 1
60 132 1
60 168 1
60 177 1
60 210 1
60 214 1
60 247 1
61 16 1
61 31 1
61 56 1
61 69 1
61 97 1
61 118 1
61 133 1
61 148 1
61 178 1
61 190 1
61 215 1
61 234 1
62 17 1
62 32 1
62 57 1
62 77 1
62 98 1
62 119 1
62 134 1
62 149 1
62 179 1
62 191 1
62 216 1
62 242 1
63 18 1
63 33 1
63 58 1
63 64 1
63 99 1
63 120 1
63 135 1
63 150 1
63 180 1
63 192 1
63 217 1
63 250 1
