%%MatrixMarket matrix coordinate integer general
%
63 252 756
1 10 1
1 40 1
1 55 1
1 66 1
1 99 1
1 124 1
1 132 1
1 157 1
1 172 1
1 196 1
1 217 1
1 252 1
2 11 1
2 41 1
2 56 1
2 74 1
2 100 1
2 125 1
2 133 1
2 158 1
2 173 1
2 197 1
2 218 1
2 239 1
3 12 1
3 42 1
3 57 1
3 82 1
3 101 1
3 126 1
3 134 1
3 159 1
3 174 1
3 198 1
3 219 1
3 247 1
4 13 1
4 22 1
4 58 1
4 69 1
4 102 1
4 106 1
4 135 1
4 160 1
4 175 1
4 199 1
4 220 1
4 234 1
5 14 1
5 23 1
5 59 1
5 77 1
5 103 1
5 107 1
5 136 1
5 161 1
5 176 1
5 200 1
5 221 1
5 242 1
6 15 1
6 24 1
6 60 1
6 64 1
6 104 1
6 108 1
6 137 1
6 162 1
6 177 1
6 201 1
6 222 1
6 250 1
7 16 1
7 25 1
7 61 1
7 72 1
7 105 1
7 109 1
7 138 1
7 163 1
7 178 1
7 202 1
7 223 1
7 237 1
8 17 1
8 26 1
8 62 1
8 80 1
8 85 1
8 110 1
8 139 1
8 164 1
8 179 1
8 203 1
8 224 1
8 245 1
9 18 1
9 27 1
9 63 1
9 67 1
9 86 1
9 111 1
9 140 1
9 165 1
9 180 1
9 204 1
9 225 1
9 232 1
10 19 1
10 28 1
10 43 1
10 75 1
10 87 1
10 112 1
10 141 1
10 166 1
10 181 1
10 205 1
10 226 1
10 240 1
11 20 1
11 29 1
11 44 1
11 83 1
11 88 1
11 113 1
11 142 1
11 167 1
11 182 1
11 206 1
11 227 1
11 248 1
12 21 1
12 30 1
12 45 1
12 70 1
12 89 1
12 114 1
12 143 1
12 168 1
12 183 1
12 207 1
12 228 1
12 235 1
13 1 1
13 31 1
13 46 1
13 78 1
13 90 1
13 115 1
13 144 1
13 148 1
13 184 1
13 208 1
13 229 1
13 243 1
14 2 1
14 32 1
14 47 1
14 65 1
14 91 1
14 116 1
14 145 1
14 149 1
14 185 1
14 209 1
14 230 1
14 251 1
15 3 1
15 33 1
15 48 1
15 73 1
15 92 1
15 117 1
15 146 1
15 150 1
15 186 1
15 210 1
15 231 1
15 238 1
16 4 1
16 34 1
16 49 1
16 81 1
16 93 1
16 118 1
16 147 1
16 151 1
16 187 1
16 190 1
16 211 1
16 246 1
17 5 1
17 35 1
17 50 1
17 68 1
17 94 1
17 119 1
17 127 1
17 152 1
17 188 1
17 191 1
17 212 1
17 233 1
18 6 1
18 36 1
18 51 1
18 76 1
18 95 1
18 120 1
18 128 1
18 153 1
18 189 1
18 192 1
18 213 1
18 241 1
19 7 1
19 37 1
19 52 1
19 84 1
19 96 1
19 121 1
19 129 1
19 154 1
19 169 1
19 193 1
19 214 1
19 249 1
20 8 1
20 38 1
20 53 1
20 71 1
20 97 1
20 122 1
20 130 1
20 155 1
20 170 1
20 194 1
20 215 1
20 236 1
21 9 1
21 39 1
21 54 1
21 79 1
21 98 1
21 123 1
21 131 1
21 156 1
21 171 1
21 195 1
21 216 1
21 244 1
22 19 1
22 31 1
22 61 1
22 76 1
22 87 1
22 120 1
22 147 1
22 153 1
22 178 1
22 193 1
22 217 1
22 238 1
23 20 1
23 32 1
23 62 1
23 77 1
23 95 1
23 121 1
23 134 1
23 154 1
23 179 1
23 194 1
23 218 1
23 239 1
24 21 1
24 33 1
24 63 1
24 78 1
24 103 1
24 122 1
24 142 1
24 155 1
24 180 1
24 195 1
24 219 1
24 240 1
25 1 1
25 34 1
25 43 1
25 79 1
25 90 1
25 123 1
25 129 1
25 156 1
25 181 1
25 196 1
25 220 1
25 241 1
26 2 1
26 35 1
26 44 1
26 80 1
26 98 1
26 124 1
26 137 1
26 157 1
26 182 1
26 197 1
26 221 1
26 242 1
27 3 1
27 36 1
27 45 1
27 81 1
27 85 1
27 125 1
27 145 1
27 158 1
27 183 1
27 198 1
27 222 1
27 243 1
28 4 1
28 37 1
28 46 1
28 82 1
28 93 1
28 126 1
28 132 1
28 159 1
28 184 1
28 199 1
28 223 1
28 244 1
29 5 1
29 38 1
29 47 1
29 83 1
29 101 1
29 106 1
29 140 1
29 160 1
29 185 1
29 200 1
29 224 1
29 245 1
30 6 1
30 39 1
30 48 1
30 84 1
30 88 1
30 107 1
30 127 1
30 161 1
30 186 1
30 201 1
30 225 1
30 246 1
31 7 1
31 40 1
31 49 1
31 64 1
31 96 1
31 108 1
31 135 1
31 162 1
31 187 1
31 202 1
31 226 1
31 247 1
32 8 1
32 41 1
32 50 1
32 65 1
32 104 1
32 109 1
32 143 1
32 163 1
32 188 1
32 203 1
32 227 1
32 248 1
33 9 1
33 42 1
33 51 1
33 66 1
33 91 1
33 110 1
33 130 1
33 164 1
33 189 1
33 204 1
33 228 1
33 249 1
34 10 1
34 22 1
34 52 1
34 67 1
34 99 1
34 111 1
34 138 1
34 165 1
34 169 1
34 205 1
34 229 1
34 250 1
35 11 1
35 23 1
35 53 1
35 68 1
35 86 1
35 112 1
35 146 1
35 166 1
35 170 1
35 206 1
35 230 1
35 251 1
36 12 1
36 24 1
36 54 1
36 69 1
36 94 1
36 113 1
36 133 1
36 167 1
36 171 1
36 207 1
36 231 1
36 252 1
37 13 1
37 25 1
37 55 1
37 70 1
37 102 1
37 114 1
37 141 1
37 168 1
37 172 1
37 208 1
37 211 1
37 232 1
38 14 1
38 26 1
38 56 1
38 71 1
38 89 1
38 115 1
38 128 1
38 148 1
38 173 1
38 209 1
38 212 1
38 233 1
39 15 1
39 27 1
39 57 1
39 72 1
39 97 1
39 116 1
39 136 1
39 149 1
39 174 1
39 210 1
39 213 1
39 234 1
40 16 1
40 28 1
40 58 1
40 73 1
40 105 1
40 117 1
40 144 1
40 150 1
40 175 1
40 190 1
40 214 1
40 235 1
41 17 1
41 29 1
41 59 1
41 74 1
41 92 1
41 118 1
41 131 1
41 151 1
41 176 1
41 191 1
41 215 1
41 236 1
42 18 1
42 30 1
42 60 1
42 75 1
42 100 1
42 119 1
42 139 1
42 152 1
42 177 1
42 192 1
42 216 1
42 237 1
43 15 1
43 40 1
43 52 1
43 82 1
43 97 1
43 108 1
43 133 1
43 168 1
43 174 1
43 199 1
43 214 1
43 238 1
44 16 1
44 41 1
44 53 1
44 83 1
44 98 1
44 116 1
44 134 1
44 155 1
44 175 1
44 200 1
44 215 1
44 239 1
45 17 1
45 42 1
45 54 1
45 84 1
45 99 1
45 124 1
45 135 1
45 163 1
45 176 1
45 201 1
45 216 1
45 240 1
46 18 1
46 22 1
46 55 1
46 64 1
46 100 1
46 111 1
46 136 1
46 150 1
46 177 1
46 202 1
46 217 1
46 241 1
47 19 1
47 23 1
47 56 1
47 65 1
47 101 1
47 119 1
47 137 1
47 158 1
47 178 1
47 203 1
47 218 1
47 242 1
48 20 1
48 24 1
48 57 1
48 66 1
48 102 1
48 106 1
48 138 1
48 166 1
48 179 1
48 204 1
48 219 1
48 243 1
49 21 1
49 25 1
49 58 1
49 67 1
49 103 1
49 114 1
49 139 1
49 153 1
49 180 1
49 205 1
49 220 1
49 244 1
50 1 1
50 26 1
50 59 1
50 68 1
50 104 1
50 122 1
50 140 1
50 161 1
50 181 1
50 206 1
50 221 1
50 245 1
51 2 1
51 27 1
51 60 1
51 69 1
51 105 1
51 109 1
51 141 1
51 148 1
51 182 1
51 207 1
51 222 1
51 246 1
52 3 1
52 28 1
52 61 1
52 70 1
52 85 1
52 117 1
52 142 1
52 156 1
52 183 1
52 208 1
52 223 1
52 247 1
53 4 1
53 29 1
53 62 1
53 71 1
53 86 1
53 125 1
53 143 1
53 164 1
53 184 1
53 209 1
53 224 1
53 248 1
54 5 1
54 30 1
54 63 1
54 72 1
54 87 1
54 112 1
54 144 1
54 151 1
54 185 1
54 210 1
54 225 1
54 249 1
55 6 1
55 31 1
55 43 1
55 73 1
55 88 1
55 120 1
55 145 1
55 159 1
55 186 1
55 190 1
55 226 1
55 250 1
56 7 1
56 32 1
56 44 1
56 74 1
56 89 1
56 107 1
56 146 1
56 167 1
56 187 1
56 191 1
56 227 1
56 251 1
57 8 1
57 33 1
57 45 1
57 75 1
57 90 1
57 115 1
57 147 1
57 154 1
57 188 1
57 192 1
57 228 1
57 252 1
58 9 1
58 34 1
58 46 1
58 76 1
58 91 1
58 123 1
58 127 1
58 162 1
58 189 1
58 193 1
58 229 1
58 232 1
59 10 1
59 35 1
59 47 1
59 77 1
59 92 1
59 110 1
59 128 1
59 149 1
59 169 1
59 194 1
59 230 1
59 233 1
60 11 1
60 36 1
60 48 1
60 78 1
60 93 1
60 118 1
60 129 1
60 157 1
60 170 1
60 195 1
60 231 1
60 234 1
61 12 1
61 37 1
61 49 1
61 79 1
61 94 1
61 126 1
61 130 1
61 165 1
61 171 1
61 196 1
61 211 1
61 235 1
62 13 1
62 38 1
62 50 1
62 80 1
62 95 1
62 113 1
62 131 1
62 152 1
62 172 1
62 197 1
62 212 1
62 236 1
63 14 1
63 39 1
63 51 1
63 81 1
63 96 1
63 121 1
63 132 1
63 160 1
63 173 1
63 198 1
63 213 1
63 237 1
