%%MatrixMarket matrix coordinate integer general
%
576 2304 6912
1 109 1
1 202 1
1 457 1
1 627 1
1 849 1
1 1132 1
1 1326 1
1 1486 1
1 1594 1
1 1789 1
1 1960 1
1 2187 1
2 110 1
2 203 1
2 458 1
2 692 1
2 850 1
2 1133 1
2 1327 1
2 1487 1
2 1595 1
2 1790 1
2 1961 1
2 2252 1
3 111 1
3 204 1
3 459 1
3 757 1
3 851 1
3 1134 1
3 1328 1
3 1488 1
3 1596 1
3 1791 1
3 1962 1
3 2125 1
4 112 1
4 205 1
4 460 1
4 630 1
4 852 1
4 1135 1
4 1329 1
4 1489 1
4 1597 1
4 1792 1
4 1963 1
4 2190 1
5 113 1
5 206 1
5 461 1
5 695 1
5 853 1
5 1136 1
5 1330 1
5 1490 1
5 1598 1
5 1793 1
5 1964 1
5 2255 1
6 114 1
6 207 1
6 462 1
6 760 1
6 854 1
6 1137 1
6 1331 1
6 1491 1
6 1599 1
6 1794 1
6 1965 1
6 2128 1
7 115 1
7 208 1
7 463 1
7 633 1
7 855 1
7 1138 1
7 1332 1
7 1492 1
7 1600 1
7 1795 1
7 1966 1
7 2193 1
8 116 1
8 209 1
8 464 1
8 698 1
8 856 1
8 1139 1
8 1333 1
8 1493 1
8 1601 1
8 1796 1
8 1967 1
8 2258 1
9 117 1
9 210 1
9 465 1
9 763 1
9 857 1
9 1140 1
9 1334 1
9 1494 1
9 1602 1
9 1797 1
9 1968 1
9 2131 1
10 118 1
10 211 1
10 466 1
10 636 1
10 858 1
10 1141 1
10 1335 1
10 1495 1
10 1603 1
10 1798 1
10 1969 1
10 2196 1
11 119 1
11 212 1
11 467 1
11 701 1
11 859 1
11 1142 1
11 1336 1
11 1496 1
11 1604 1
11 1799 1
11 1970 1
11 2261 1
12 120 1
12 213 1
12 468 1
12 766 1
12 860 1
12 1143 1
12 1337 1
12 1497 1
12 1605 1
12 1800 1
12 1971 1
12 2134 1
13 121 1
13 214 1
13 469 1
13 639 1
13 861 1
13 1144 1
13 1338 1
13 1498 1
13 1606 1
13 1801 1
13 1972 1
13 2199 1
14 122 1
14 215 1
14 470 1
14 704 1
14 862 1
14 1145 1
14 1339 1
14 1499 1
14 1607 1
14 1802 1
14 1973 1
14 2264 1
15 123 1
15 216 1
15 471 1
15 577 1
15 863 1
15 1146 1
15 1340 1
15 1500 1
15 1608 1
15 1803 1
15 1974 1
15 2137 1
16 124 1
16 217 1
16 472 1
16 642 1
16 864 1
16 1147 1
16 1341 1
16 1501 1
16 1609 1
16 1804 1
16 1975 1
16 2202 1
17 125 1
17 218 1
17 473 1
17 707 1
17 865 1
17 1148 1
17 1342 1
17 1502 1
17 1610 1
17 1805 1
17 1976 1
17 2267 1
18 126 1
18 219 1
18 474 1
18 580 1
18 866 1
18 1149 1
18 1343 1
18 1503 1
18 1611 1
18 1806 1
18 1977 1
18 2140 1
19 127 1
19 220 1
19 475 1
19 645 1
19 867 1
19 1150 1
19 1344 1
19 1504 1
19 1612 1
19 1807 1
19 1978 1
19 2205 1
20 128 1
20 221 1
20 476 1
20 710 1
20 868 1
20 1151 1
20 1153 1
20 1505 1
20 1613 1
20 1808 1
20 1979 1
20 2270 1
21 129 1
21 222 1
21 477 1
21 583 1
21 869 1
21 1152 1
21 1154 1
21 1506 1
21 1614 1
21 1809 1
21 1980 1
21 2143 1
22 130 1
22 223 1
22 478 1
22 648 1
22 870 1
22 961 1
22 1155 1
22 1507 1
22 1615 1
22 1810 1
22 1981 1
22 2208 1
23 131 1
23 224 1
23 479 1
23 713 1
23 871 1
23 962 1
23 1156 1
23 1508 1
23 1616 1
23 1811 1
23 1982 1
23 2273 1
24 132 1
24 225 1
24 480 1
24 586 1
24 872 1
24 963 1
24 1157 1
24 1509 1
24 1617 1
24 1812 1
24 1983 1
24 2146 1
25 133 1
25 226 1
25 481 1
25 651 1
25 873 1
25 964 1
25 1158 1
25 1510 1
25 1618 1
25 1813 1
25 1984 1
25 2211 1
26 134 1
26 227 1
26 482 1
26 716 1
26 874 1
26 965 1
26 1159 1
26 1511 1
26 1619 1
26 1814 1
26 1985 1
26 2276 1
27 135 1
27 228 1
27 483 1
27 589 1
27 875 1
27 966 1
27 1160 1
27 1512 1
27 1620 1
27 1815 1
27 1986 1
27 2149 1
28 136 1
28 229 1
28 484 1
28 654 1
28 876 1
28 967 1
28 1161 1
28 1513 1
28 1621 1
28 1816 1
28 1987 1
28 2214 1
29 137 1
29 230 1
29 485 1
29 719 1
29 877 1
29 968 1
29 1162 1
29 1514 1
29 1622 1
29 1817 1
29 1988 1
29 2279 1
30 138 1
30 231 1
30 486 1
30 592 1
30 878 1
30 969 1
30 1163 1
30 1515 1
30 1623 1
30 1818 1
30 1989 1
30 2152 1
31 139 1
31 232 1
31 487 1
31 657 1
31 879 1
31 970 1
31 1164 1
31 1516 1
31 1624 1
31 1819 1
31 1990 1
31 2217 1
32 140 1
32 233 1
32 488 1
32 722 1
32 880 1
32 971 1
32 1165 1
32 1517 1
32 1625 1
32 1820 1
32 1991 1
32 2282 1
33 141 1
33 234 1
33 489 1
33 595 1
33 881 1
33 972 1
33 1166 1
33 1518 1
33 1626 1
33 1821 1
33 1992 1
33 2155 1
34 142 1
34 235 1
34 490 1
34 660 1
34 882 1
34 973 1
34 1167 1
34 1519 1
34 1627 1
34 1822 1
34 1993 1
34 2220 1
35 143 1
35 236 1
35 491 1
35 725 1
35 883 1
35 974 1
35 1168 1
35 1520 1
35 1628 1
35 1823 1
35 1994 1
35 2285 1
36 144 1
36 237 1
36 492 1
36 598 1
36 884 1
36 975 1
36 1169 1
36 1521 1
36 1629 1
36 1824 1
36 1995 1
36 2158 1
37 145 1
37 238 1
37 493 1
37 663 1
37 885 1
37 976 1
37 1170 1
37 1522 1
37 1630 1
37 1825 1
37 1996 1
37 2223 1
38 146 1
38 239 1
38 494 1
38 728 1
38 886 1
38 977 1
38 1171 1
38 1523 1
38 1631 1
38 1826 1
38 1997 1
38 2288 1
39 147 1
39 240 1
39 495 1
39 601 1
39 887 1
39 978 1
39 1172 1
39 1524 1
39 1632 1
39 1827 1
39 1998 1
39 2161 1
40 148 1
40 241 1
40 496 1
40 666 1
40 888 1
40 979 1
40 1173 1
40 1525 1
40 1633 1
40 1828 1
40 1999 1
40 2226 1
41 149 1
41 242 1
41 497 1
41 731 1
41 889 1
41 980 1
41 1174 1
41 1526 1
41 1634 1
41 1829 1
41 2000 1
41 2291 1
42 150 1
42 243 1
42 498 1
42 604 1
42 890 1
42 981 1
42 1175 1
42 1527 1
42 1635 1
42 1830 1
42 2001 1
42 2164 1
43 151 1
43 244 1
43 499 1
43 669 1
43 891 1
43 982 1
43 1176 1
43 1528 1
43 1636 1
43 1831 1
43 2002 1
43 2229 1
44 152 1
44 245 1
44 500 1
44 734 1
44 892 1
44 983 1
44 1177 1
44 1529 1
44 1637 1
44 1832 1
44 2003 1
44 2294 1
45 153 1
45 246 1
45 501 1
45 607 1
45 893 1
45 984 1
45 1178 1
45 1530 1
45 1638 1
45 1833 1
45 2004 1
45 2167 1
46 154 1
46 247 1
46 502 1
46 672 1
46 894 1
46 985 1
46 1179 1
46 1531 1
46 1639 1
46 1834 1
46 2005 1
46 2232 1
47 155 1
47 248 1
47 503 1
47 737 1
47 895 1
47 986 1
47 1180 1
47 1532 1
47 1640 1
47 1835 1
47 2006 1
47 2297 1
48 156 1
48 249 1
48 504 1
48 610 1
48 896 1
48 987 1
48 1181 1
48 1533 1
48 1641 1
48 1836 1
48 2007 1
48 2170 1
49 157 1
49 250 1
49 505 1
49 675 1
49 897 1
49 988 1
49 1182 1
49 1534 1
49 1642 1
49 1837 1
49 2008 1
49 2235 1
50 158 1
50 251 1
50 506 1
50 740 1
50 898 1
50 989 1
50 1183 1
50 1535 1
50 1643 1
50 1838 1
50 2009 1
50 2300 1
51 159 1
51 252 1
51 507 1
51 613 1
51 899 1
51 990 1
51 1184 1
51 1536 1
51 1644 1
51 1839 1
51 2010 1
51 2173 1
52 160 1
52 253 1
52 508 1
52 678 1
52 900 1
52 991 1
52 1185 1
52 1345 1
52 1645 1
52 1840 1
52 2011 1
52 2238 1
53 161 1
53 254 1
53 509 1
53 743 1
53 901 1
53 992 1
53 1186 1
53 1346 1
53 1646 1
53 1841 1
53 2012 1
53 2303 1
54 162 1
54 255 1
54 510 1
54 616 1
54 902 1
54 993 1
54 1187 1
54 1347 1
54 1647 1
54 1842 1
54 2013 1
54 2176 1
55 163 1
55 256 1
55 511 1
55 681 1
55 903 1
55 994 1
55 1188 1
55 1348 1
55 1648 1
55 1843 1
55 2014 1
55 2241 1
56 164 1
56 257 1
56 512 1
56 746 1
56 904 1
56 995 1
56 1189 1
56 1349 1
56 1649 1
56 1844 1
56 2015 1
56 2114 1
57 165 1
57 258 1
57 513 1
57 619 1
57 905 1
57 996 1
57 1190 1
57 1350 1
57 1650 1
57 1845 1
57 2016 1
57 2179 1
58 166 1
58 259 1
58 514 1
58 684 1
58 906 1
58 997 1
58 1191 1
58 1351 1
58 1651 1
58 1846 1
58 2017 1
58 2244 1
59 167 1
59 260 1
59 515 1
59 749 1
59 907 1
59 998 1
59 1192 1
59 1352 1
59 1652 1
59 1847 1
59 2018 1
59 2117 1
60 168 1
60 261 1
60 516 1
60 622 1
60 908 1
60 999 1
60 1193 1
60 1353 1
60 1653 1
60 1848 1
60 2019 1
60 2182 1
61 169 1
61 262 1
61 517 1
61 687 1
61 909 1
61 1000 1
61 1194 1
61 1354 1
61 1654 1
61 1849 1
61 2020 1
61 2247 1
62 170 1
62 263 1
62 518 1
62 752 1
62 910 1
62 1001 1
62 1195 1
62 1355 1
62 1655 1
62 1850 1
62 2021 1
62 2120 1
63 171 1
63 264 1
63 519 1
63 625 1
63 911 1
63 1002 1
63 1196 1
63 1356 1
63 1656 1
63 1851 1
63 2022 1
63 2185 1
64 172 1
64 265 1
64 520 1
64 690 1
64 912 1
64 1003 1
64 1197 1
64 1357 1
64 1657 1
64 1852 1
64 2023 1
64 2250 1
65 173 1
65 266 1
65 521 1
65 755 1
65 913 1
65 1004 1
65 1198 1
65 1358 1
65 1658 1
65 1853 1
65 2024 1
65 2123 1
66 174 1
66 267 1
66 522 1
66 628 1
66 914 1
66 1005 1
66 1199 1
66 1359 1
66 1659 1
66 1854 1
66 2025 1
66 2188 1
67 175 1
67 268 1
67 523 1
67 693 1
67 915 1
67 1006 1
67 1200 1
67 1360 1
67 1660 1
67 1855 1
67 2026 1
67 2253 1
68 176 1
68 269 1
68 524 1
68 758 1
68 916 1
68 1007 1
68 1201 1
68 1361 1
68 1661 1
68 1856 1
68 2027 1
68 2126 1
69 177 1
69 270 1
69 525 1
69 631 1
69 917 1
69 1008 1
69 1202 1
69 1362 1
69 1662 1
69 1857 1
69 2028 1
69 2191 1
70 178 1
70 271 1
70 526 1
70 696 1
70 918 1
70 1009 1
70 1203 1
70 1363 1
70 1663 1
70 1858 1
70 2029 1
70 2256 1
71 179 1
71 272 1
71 527 1
71 761 1
71 919 1
71 1010 1
71 1204 1
71 1364 1
71 1664 1
71 1859 1
71 2030 1
71 2129 1
72 180 1
72 273 1
72 528 1
72 634 1
72 920 1
72 1011 1
72 1205 1
72 1365 1
72 1665 1
72 1860 1
72 2031 1
72 2194 1
73 181 1
73 274 1
73 529 1
73 699 1
73 921 1
73 1012 1
73 1206 1
73 1366 1
73 1666 1
73 1861 1
73 2032 1
73 2259 1
74 182 1
74 275 1
74 530 1
74 764 1
74 922 1
74 1013 1
74 1207 1
74 1367 1
74 1667 1
74 1862 1
74 2033 1
74 2132 1
75 183 1
75 276 1
75 531 1
75 637 1
75 923 1
75 1014 1
75 1208 1
75 1368 1
75 1668 1
75 1863 1
75 2034 1
75 2197 1
76 184 1
76 277 1
76 532 1
76 702 1
76 924 1
76 1015 1
76 1209 1
76 1369 1
76 1669 1
76 1864 1
76 2035 1
76 2262 1
77 185 1
77 278 1
77 533 1
77 767 1
77 925 1
77 1016 1
77 1210 1
77 1370 1
77 1670 1
77 1865 1
77 2036 1
77 2135 1
78 186 1
78 279 1
78 534 1
78 640 1
78 926 1
78 1017 1
78 1211 1
78 1371 1
78 1671 1
78 1866 1
78 2037 1
78 2200 1
79 187 1
79 280 1
79 535 1
79 705 1
79 927 1
79 1018 1
79 1212 1
79 1372 1
79 1672 1
79 1867 1
79 2038 1
79 2265 1
80 188 1
80 281 1
80 536 1
80 578 1
80 928 1
80 1019 1
80 1213 1
80 1373 1
80 1673 1
80 1868 1
80 2039 1
80 2138 1
81 189 1
81 282 1
81 537 1
81 643 1
81 929 1
81 1020 1
81 1214 1
81 1374 1
81 1674 1
81 1869 1
81 2040 1
81 2203 1
82 190 1
82 283 1
82 538 1
82 708 1
82 930 1
82 1021 1
82 1215 1
82 1375 1
82 1675 1
82 1870 1
82 2041 1
82 2268 1
83 191 1
83 284 1
83 539 1
83 581 1
83 931 1
83 1022 1
83 1216 1
83 1376 1
83 1676 1
83 1871 1
83 2042 1
83 2141 1
84 192 1
84 285 1
84 540 1
84 646 1
84 932 1
84 1023 1
84 1217 1
84 1377 1
84 1677 1
84 1872 1
84 2043 1
84 2206 1
85 1 1
85 286 1
85 541 1
85 711 1
85 933 1
85 1024 1
85 1218 1
85 1378 1
85 1678 1
85 1873 1
85 2044 1
85 2271 1
86 2 1
86 287 1
86 542 1
86 584 1
86 934 1
86 1025 1
86 1219 1
86 1379 1
86 1679 1
86 1874 1
86 2045 1
86 2144 1
87 3 1
87 288 1
87 543 1
87 649 1
87 935 1
87 1026 1
87 1220 1
87 1380 1
87 1680 1
87 1875 1
87 2046 1
87 2209 1
88 4 1
88 289 1
88 544 1
88 714 1
88 936 1
88 1027 1
88 1221 1
88 1381 1
88 1681 1
88 1876 1
88 2047 1
88 2274 1
89 5 1
89 290 1
89 545 1
89 587 1
89 937 1
89 1028 1
89 1222 1
89 1382 1
89 1682 1
89 1877 1
89 2048 1
89 2147 1
90 6 1
90 291 1
90 546 1
90 652 1
90 938 1
90 1029 1
90 1223 1
90 1383 1
90 1683 1
90 1878 1
90 2049 1
90 2212 1
91 7 1
91 292 1
91 547 1
91 717 1
91 939 1
91 1030 1
91 1224 1
91 1384 1
91 1684 1
91 1879 1
91 2050 1
91 2277 1
92 8 1
92 293 1
92 548 1
92 590 1
92 940 1
92 1031 1
92 1225 1
92 1385 1
92 1685 1
92 1880 1
92 2051 1
92 2150 1
93 9 1
93 294 1
93 549 1
93 655 1
93 941 1
93 1032 1
93 1226 1
93 1386 1
93 1686 1
93 1881 1
93 2052 1
93 2215 1
94 10 1
94 295 1
94 550 1
94 720 1
94 942 1
94 1033 1
94 1227 1
94 1387 1
94 1687 1
94 1882 1
94 2053 1
94 2280 1
95 11 1
95 296 1
95 551 1
95 593 1
95 943 1
95 1034 1
95 1228 1
95 1388 1
95 1688 1
95 1883 1
95 2054 1
95 2153 1
96 12 1
96 297 1
96 552 1
96 658 1
96 944 1
96 1035 1
96 1229 1
96 1389 1
96 1689 1
96 1884 1
96 2055 1
96 2218 1
97 13 1
97 298 1
97 553 1
97 723 1
97 945 1
97 1036 1
97 1230 1
97 1390 1
97 1690 1
97 1885 1
97 2056 1
97 2283 1
98 14 1
98 299 1
98 554 1
98 596 1
98 946 1
98 1037 1
98 1231 1
98 1391 1
98 1691 1
98 1886 1
98 2057 1
98 2156 1
99 15 1
99 300 1
99 555 1
99 661 1
99 947 1
99 1038 1
99 1232 1
99 1392 1
99 1692 1
99 1887 1
99 2058 1
99 2221 1
100 16 1
100 301 1
100 556 1
100 726 1
100 948 1
100 1039 1
100 1233 1
100 1393 1
100 1693 1
100 1888 1
100 2059 1
100 2286 1
101 17 1
101 302 1
101 557 1
101 599 1
101 949 1
101 1040 1
101 1234 1
101 1394 1
101 1694 1
101 1889 1
101 2060 1
101 2159 1
102 18 1
102 303 1
102 558 1
102 664 1
102 950 1
102 1041 1
102 1235 1
102 1395 1
102 1695 1
102 1890 1
102 2061 1
102 2224 1
103 19 1
103 304 1
103 559 1
103 729 1
103 951 1
103 1042 1
103 1236 1
103 1396 1
103 1696 1
103 1891 1
103 2062 1
103 2289 1
104 20 1
104 305 1
104 560 1
104 602 1
104 952 1
104 1043 1
104 1237 1
104 1397 1
104 1697 1
104 1892 1
104 2063 1
104 2162 1
105 21 1
105 306 1
105 561 1
105 667 1
105 953 1
105 1044 1
105 1238 1
105 1398 1
105 1698 1
105 1893 1
105 2064 1
105 2227 1
106 22 1
106 307 1
106 562 1
106 732 1
106 954 1
106 1045 1
106 1239 1
106 1399 1
106 1699 1
106 1894 1
106 2065 1
106 2292 1
107 23 1
107 308 1
107 563 1
107 605 1
107 955 1
107 1046 1
107 1240 1
107 1400 1
107 1700 1
107 1895 1
107 2066 1
107 2165 1
108 24 1
108 309 1
108 564 1
108 670 1
108 956 1
108 1047 1
108 1241 1
108 1401 1
108 1701 1
108 1896 1
108 2067 1
108 2230 1
109 25 1
109 310 1
109 565 1
109 735 1
109 957 1
109 1048 1
109 1242 1
109 1402 1
109 1702 1
109 1897 1
109 2068 1
109 2295 1
110 26 1
110 311 1
110 566 1
110 608 1
110 958 1
110 1049 1
110 1243 1
110 1403 1
110 1703 1
110 1898 1
110 2069 1
110 2168 1
111 27 1
111 312 1
111 567 1
111 673 1
111 959 1
111 1050 1
111 1244 1
111 1404 1
111 1704 1
111 1899 1
111 2070 1
111 2233 1
112 28 1
112 313 1
112 568 1
112 738 1
112 960 1
112 1051 1
112 1245 1
112 1405 1
112 1705 1
112 1900 1
112 2071 1
112 2298 1
113 29 1
113 314 1
113 569 1
113 611 1
113 769 1
113 1052 1
113 1246 1
113 1406 1
113 1706 1
113 1901 1
113 2072 1
113 2171 1
114 30 1
114 315 1
114 570 1
114 676 1
114 770 1
114 1053 1
114 1247 1
114 1407 1
114 1707 1
114 1902 1
114 2073 1
114 2236 1
115 31 1
115 316 1
115 571 1
115 741 1
115 771 1
115 1054 1
115 1248 1
115 1408 1
115 1708 1
115 1903 1
115 2074 1
115 2301 1
116 32 1
116 317 1
116 572 1
116 614 1
116 772 1
116 1055 1
116 1249 1
116 1409 1
116 1709 1
116 1904 1
116 2075 1
116 2174 1
117 33 1
117 318 1
117 573 1
117 679 1
117 773 1
117 1056 1
117 1250 1
117 1410 1
117 1710 1
117 1905 1
117 2076 1
117 2239 1
118 34 1
118 319 1
118 574 1
118 744 1
118 774 1
118 1057 1
118 1251 1
118 1411 1
118 1711 1
118 1906 1
118 2077 1
118 2304 1
119 35 1
119 320 1
119 575 1
119 617 1
119 775 1
119 1058 1
119 1252 1
119 1412 1
119 1712 1
119 1907 1
119 2078 1
119 2177 1
120 36 1
120 321 1
120 576 1
120 682 1
120 776 1
120 1059 1
120 1253 1
120 1413 1
120 1713 1
120 1908 1
120 2079 1
120 2242 1
121 37 1
121 322 1
121 385 1
121 747 1
121 777 1
121 1060 1
121 1254 1
121 1414 1
121 1714 1
121 1909 1
121 2080 1
121 2115 1
122 38 1
122 323 1
122 386 1
122 620 1
122 778 1
122 1061 1
122 1255 1
122 1415 1
122 1715 1
122 1910 1
122 2081 1
122 2180 1
123 39 1
123 324 1
123 387 1
123 685 1
123 779 1
123 1062 1
123 1256 1
123 1416 1
123 1716 1
123 1911 1
123 2082 1
123 2245 1
124 40 1
124 325 1
124 388 1
124 750 1
124 780 1
124 1063 1
124 1257 1
124 1417 1
124 1717 1
124 1912 1
124 2083 1
124 2118 1
125 41 1
125 326 1
125 389 1
125 623 1
125 781 1
125 1064 1
125 1258 1
125 1418 1
125 1718 1
125 1913 1
125 2084 1
125 2183 1
126 42 1
126 327 1
126 390 1
126 688 1
126 782 1
126 1065 1
126 1259 1
126 1419 1
126 1719 1
126 1914 1
126 2085 1
126 2248 1
127 43 1
127 328 1
127 391 1
127 753 1
127 783 1
127 1066 1
127 1260 1
127 1420 1
127 1720 1
127 1915 1
127 2086 1
127 2121 1
128 44 1
128 329 1
128 392 1
128 626 1
128 784 1
128 1067 1
128 1261 1
128 1421 1
128 1721 1
128 1916 1
128 2087 1
128 2186 1
129 45 1
129 330 1
129 393 1
129 691 1
129 785 1
129 1068 1
129 1262 1
129 1422 1
129 1722 1
129 1917 1
129 2088 1
129 2251 1
130 46 1
130 331 1
130 394 1
130 756 1
130 786 1
130 1069 1
130 1263 1
130 1423 1
130 1723 1
130 1918 1
130 2089 1
130 2124 1
131 47 1
131 332 1
131 395 1
131 629 1
131 787 1
131 1070 1
131 1264 1
131 1424 1
131 1724 1
131 1919 1
131 2090 1
131 2189 1
132 48 1
132 333 1
132 396 1
132 694 1
132 788 1
132 1071 1
132 1265 1
132 1425 1
132 1725 1
132 1920 1
132 2091 1
132 2254 1
133 49 1
133 334 1
133 397 1
133 759 1
133 789 1
133 1072 1
133 1266 1
133 1426 1
133 1726 1
133 1729 1
133 2092 1
133 2127 1
134 50 1
134 335 1
134 398 1
134 632 1
134 790 1
134 1073 1
134 1267 1
134 1427 1
134 1727 1
134 1730 1
134 2093 1
134 2192 1
135 51 1
135 336 1
135 399 1
135 697 1
135 791 1
135 1074 1
135 1268 1
135 1428 1
135 1728 1
135 1731 1
135 2094 1
135 2257 1
136 52 1
136 337 1
136 400 1
136 762 1
136 792 1
136 1075 1
136 1269 1
136 1429 1
136 1537 1
136 1732 1
136 2095 1
136 2130 1
137 53 1
137 338 1
137 401 1
137 635 1
137 793 1
137 1076 1
137 1270 1
137 1430 1
137 1538 1
137 1733 1
137 2096 1
137 2195 1
138 54 1
138 339 1
138 402 1
138 700 1
138 794 1
138 1077 1
138 1271 1
138 1431 1
138 1539 1
138 1734 1
138 2097 1
138 2260 1
139 55 1
139 340 1
139 403 1
139 765 1
139 795 1
139 1078 1
139 1272 1
139 1432 1
139 1540 1
139 1735 1
139 2098 1
139 2133 1
140 56 1
140 341 1
140 404 1
140 638 1
140 796 1
140 1079 1
140 1273 1
140 1433 1
140 1541 1
140 1736 1
140 2099 1
140 2198 1
141 57 1
141 342 1
141 405 1
141 703 1
141 797 1
141 1080 1
141 1274 1
141 1434 1
141 1542 1
141 1737 1
141 2100 1
141 2263 1
142 58 1
142 343 1
142 406 1
142 768 1
142 798 1
142 1081 1
142 1275 1
142 1435 1
142 1543 1
142 1738 1
142 2101 1
142 2136 1
143 59 1
143 344 1
143 407 1
143 641 1
143 799 1
143 1082 1
143 1276 1
143 1436 1
143 1544 1
143 1739 1
143 2102 1
143 2201 1
144 60 1
144 345 1
144 408 1
144 706 1
144 800 1
144 1083 1
144 1277 1
144 1437 1
144 1545 1
144 1740 1
144 2103 1
144 2266 1
145 61 1
145 346 1
145 409 1
145 579 1
145 801 1
145 1084 1
145 1278 1
145 1438 1
145 1546 1
145 1741 1
145 2104 1
145 2139 1
146 62 1
146 347 1
146 410 1
146 644 1
146 802 1
146 1085 1
146 1279 1
146 1439 1
146 1547 1
146 1742 1
146 2105 1
146 2204 1
147 63 1
147 348 1
147 411 1
147 709 1
147 803 1
147 1086 1
147 1280 1
147 1440 1
147 1548 1
147 1743 1
147 2106 1
147 2269 1
148 64 1
148 349 1
148 412 1
148 582 1
148 804 1
148 1087 1
148 1281 1
148 1441 1
148 1549 1
148 1744 1
148 2107 1
148 2142 1
149 65 1
149 350 1
149 413 1
149 647 1
149 805 1
149 1088 1
149 1282 1
149 1442 1
149 1550 1
149 1745 1
149 2108 1
149 2207 1
150 66 1
150 351 1
150 414 1
150 712 1
150 806 1
150 1089 1
150 1283 1
150 1443 1
150 1551 1
150 1746 1
150 2109 1
150 2272 1
151 67 1
151 352 1
151 415 1
151 585 1
151 807 1
151 1090 1
151 1284 1
151 1444 1
151 1552 1
151 1747 1
151 2110 1
151 2145 1
152 68 1
152 353 1
152 416 1
152 650 1
152 808 1
152 1091 1
152 1285 1
152 1445 1
152 1553 1
152 1748 1
152 2111 1
152 2210 1
153 69 1
153 354 1
153 417 1
153 715 1
153 809 1
153 1092 1
153 1286 1
153 1446 1
153 1554 1
153 1749 1
153 2112 1
153 2275 1
154 70 1
154 355 1
154 418 1
154 588 1
154 810 1
154 1093 1
154 1287 1
154 1447 1
154 1555 1
154 1750 1
154 1921 1
154 2148 1
155 71 1
155 356 1
155 419 1
155 653 1
155 811 1
155 1094 1
155 1288 1
155 1448 1
155 1556 1
155 1751 1
155 1922 1
155 2213 1
156 72 1
156 357 1
156 420 1
156 718 1
156 812 1
156 1095 1
156 1289 1
156 1449 1
156 1557 1
156 1752 1
156 1923 1
156 2278 1
157 73 1
157 358 1
157 421 1
157 591 1
157 813 1
157 1096 1
157 1290 1
157 1450 1
157 1558 1
157 1753 1
157 1924 1
157 2151 1
158 74 1
158 359 1
158 422 1
158 656 1
158 814 1
158 1097 1
158 1291 1
158 1451 1
158 1559 1
158 1754 1
158 1925 1
158 2216 1
159 75 1
159 360 1
159 423 1
159 721 1
159 815 1
159 1098 1
159 1292 1
159 1452 1
159 1560 1
159 1755 1
159 1926 1
159 2281 1
160 76 1
160 361 1
160 424 1
160 594 1
160 816 1
160 1099 1
160 1293 1
160 1453 1
160 1561 1
160 1756 1
160 1927 1
160 2154 1
161 77 1
161 362 1
161 425 1
161 659 1
161 817 1
161 1100 1
161 1294 1
161 1454 1
161 1562 1
161 1757 1
161 1928 1
161 2219 1
162 78 1
162 363 1
162 426 1
162 724 1
162 818 1
162 1101 1
162 1295 1
162 1455 1
162 1563 1
162 1758 1
162 1929 1
162 2284 1
163 79 1
163 364 1
163 427 1
163 597 1
163 819 1
163 1102 1
163 1296 1
163 1456 1
163 1564 1
163 1759 1
163 1930 1
163 2157 1
164 80 1
164 365 1
164 428 1
164 662 1
164 820 1
164 1103 1
164 1297 1
164 1457 1
164 1565 1
164 1760 1
164 1931 1
164 2222 1
165 81 1
165 366 1
165 429 1
165 727 1
165 821 1
165 1104 1
165 1298 1
165 1458 1
165 1566 1
165 1761 1
165 1932 1
165 2287 1
166 82 1
166 367 1
166 430 1
166 600 1
166 822 1
166 1105 1
166 1299 1
166 1459 1
166 1567 1
166 1762 1
166 1933 1
166 2160 1
167 83 1
167 368 1
167 431 1
167 665 1
167 823 1
167 1106 1
167 1300 1
167 1460 1
167 1568 1
167 1763 1
167 1934 1
167 2225 1
168 84 1
168 369 1
168 432 1
168 730 1
168 824 1
168 1107 1
168 1301 1
168 1461 1
168 1569 1
168 1764 1
168 1935 1
168 2290 1
169 85 1
169 370 1
169 433 1
169 603 1
169 825 1
169 1108 1
169 1302 1
169 1462 1
169 1570 1
169 1765 1
169 1936 1
169 2163 1
170 86 1
170 371 1
170 434 1
170 668 1
170 826 1
170 1109 1
170 1303 1
170 1463 1
170 1571 1
170 1766 1
170 1937 1
170 2228 1
171 87 1
171 372 1
171 435 1
171 733 1
171 827 1
171 1110 1
171 1304 1
171 1464 1
171 1572 1
171 1767 1
171 1938 1
171 2293 1
172 88 1
172 373 1
172 436 1
172 606 1
172 828 1
172 1111 1
172 1305 1
172 1465 1
172 1573 1
172 1768 1
172 1939 1
172 2166 1
173 89 1
173 374 1
173 437 1
173 671 1
173 829 1
173 1112 1
173 1306 1
173 1466 1
173 1574 1
173 1769 1
173 1940 1
173 2231 1
174 90 1
174 375 1
174 438 1
174 736 1
174 830 1
174 1113 1
174 1307 1
174 1467 1
174 1575 1
174 1770 1
174 1941 1
174 2296 1
175 91 1
175 376 1
175 439 1
175 609 1
175 831 1
175 1114 1
175 1308 1
175 1468 1
175 1576 1
175 1771 1
175 1942 1
175 2169 1
176 92 1
176 377 1
176 440 1
176 674 1
176 832 1
176 1115 1
176 1309 1
176 1469 1
176 1577 1
176 1772 1
176 1943 1
176 2234 1
177 93 1
177 378 1
177 441 1
177 739 1
177 833 1
177 1116 1
177 1310 1
177 1470 1
177 1578 1
177 1773 1
177 1944 1
177 2299 1
178 94 1
178 379 1
178 442 1
178 612 1
178 834 1
178 1117 1
178 1311 1
178 1471 1
178 1579 1
178 1774 1
178 1945 1
178 2172 1
179 95 1
179 380 1
179 443 1
179 677 1
179 835 1
179 1118 1
179 1312 1
179 1472 1
179 1580 1
179 1775 1
179 1946 1
179 2237 1
180 96 1
180 381 1
180 444 1
180 742 1
180 836 1
180 1119 1
180 1313 1
180 1473 1
180 1581 1
180 1776 1
180 1947 1
180 2302 1
181 97 1
181 382 1
181 445 1
181 615 1
181 837 1
181 1120 1
181 1314 1
181 1474 1
181 1582 1
181 1777 1
181 1948 1
181 2175 1
182 98 1
182 383 1
182 446 1
182 680 1
182 838 1
182 1121 1
182 1315 1
182 1475 1
182 1583 1
182 1778 1
182 1949 1
182 2240 1
183 99 1
183 384 1
183 447 1
183 745 1
183 839 1
183 1122 1
183 1316 1
183 1476 1
183 1584 1
183 1779 1
183 1950 1
183 2113 1
184 100 1
184 193 1
184 448 1
184 618 1
184 840 1
184 1123 1
184 1317 1
184 1477 1
184 1585 1
184 1780 1
184 1951 1
184 2178 1
185 101 1
185 194 1
185 449 1
185 683 1
185 841 1
185 1124 1
185 1318 1
185 1478 1
185 1586 1
185 1781 1
185 1952 1
185 2243 1
186 102 1
186 195 1
186 450 1
186 748 1
186 842 1
186 1125 1
186 1319 1
186 1479 1
186 1587 1
186 1782 1
186 1953 1
186 2116 1
187 103 1
187 196 1
187 451 1
187 621 1
187 843 1
187 1126 1
187 1320 1
187 1480 1
187 1588 1
187 1783 1
187 1954 1
187 2181 1
188 104 1
188 197 1
188 452 1
188 686 1
188 844 1
188 1127 1
188 1321 1
188 1481 1
188 1589 1
188 1784 1
188 1955 1
188 2246 1
189 105 1
189 198 1
189 453 1
189 751 1
189 845 1
189 1128 1
189 1322 1
189 1482 1
189 1590 1
189 1785 1
189 1956 1
189 2119 1
190 106 1
190 199 1
190 454 1
190 624 1
190 846 1
190 1129 1
190 1323 1
190 1483 1
190 1591 1
190 1786 1
190 1957 1
190 2184 1
191 107 1
191 200 1
191 455 1
191 689 1
191 847 1
191 1130 1
191 1324 1
191 1484 1
191 1592 1
191 1787 1
191 1958 1
191 2249 1
192 108 1
192 201 1
192 456 1
192 754 1
192 848 1
192 1131 1
192 1325 1
192 1485 1
192 1593 1
192 1788 1
192 1959 1
192 2122 1
193 172 1
193 301 1
193 394 1
193 649 1
193 819 1
193 1041 1
193 1227 1
193 1518 1
193 1678 1
193 1786 1
193 1981 1
193 2152 1
194 173 1
194 302 1
194 395 1
194 650 1
194 884 1
194 1042 1
194 1292 1
194 1519 1
194 1679 1
194 1787 1
194 1982 1
194 2153 1
195 174 1
195 303 1
195 396 1
195 651 1
195 949 1
195 1043 1
195 1165 1
195 1520 1
195 1680 1
195 1788 1
195 1983 1
195 2154 1
196 175 1
196 304 1
196 397 1
196 652 1
196 822 1
196 1044 1
196 1230 1
196 1521 1
196 1681 1
196 1789 1
196 1984 1
196 2155 1
197 176 1
197 305 1
197 398 1
197 653 1
197 887 1
197 1045 1
197 1295 1
197 1522 1
197 1682 1
197 1790 1
197 1985 1
197 2156 1
198 177 1
198 306 1
198 399 1
198 654 1
198 952 1
198 1046 1
198 1168 1
198 1523 1
198 1683 1
198 1791 1
198 1986 1
198 2157 1
199 178 1
199 307 1
199 400 1
199 655 1
199 825 1
199 1047 1
199 1233 1
199 1524 1
199 1684 1
199 1792 1
199 1987 1
199 2158 1
200 179 1
200 308 1
200 401 1
200 656 1
200 890 1
200 1048 1
200 1298 1
200 1525 1
200 1685 1
200 1793 1
200 1988 1
200 2159 1
201 180 1
201 309 1
201 402 1
201 657 1
201 955 1
201 1049 1
201 1171 1
201 1526 1
201 1686 1
201 1794 1
201 1989 1
201 2160 1
202 181 1
202 310 1
202 403 1
202 658 1
202 828 1
202 1050 1
202 1236 1
202 1527 1
202 1687 1
202 1795 1
202 1990 1
202 2161 1
203 182 1
203 311 1
203 404 1
203 659 1
203 893 1
203 1051 1
203 1301 1
203 1528 1
203 1688 1
203 1796 1
203 1991 1
203 2162 1
204 183 1
204 312 1
204 405 1
204 660 1
204 958 1
204 1052 1
204 1174 1
204 1529 1
204 1689 1
204 1797 1
204 1992 1
204 2163 1
205 184 1
205 313 1
205 406 1
205 661 1
205 831 1
205 1053 1
205 1239 1
205 1530 1
205 1690 1
205 1798 1
205 1993 1
205 2164 1
206 185 1
206 314 1
206 407 1
206 662 1
206 896 1
206 1054 1
206 1304 1
206 1531 1
206 1691 1
206 1799 1
206 1994 1
206 2165 1
207 186 1
207 315 1
207 408 1
207 663 1
207 769 1
207 1055 1
207 1177 1
207 1532 1
207 1692 1
207 1800 1
207 1995 1
207 2166 1
208 187 1
208 316 1
208 409 1
208 664 1
208 834 1
208 1056 1
208 1242 1
208 1533 1
208 1693 1
208 1801 1
208 1996 1
208 2167 1
209 188 1
209 317 1
209 410 1
209 665 1
209 899 1
209 1057 1
209 1307 1
209 1534 1
209 1694 1
209 1802 1
209 1997 1
209 2168 1
210 189 1
210 318 1
210 411 1
210 666 1
210 772 1
210 1058 1
210 1180 1
210 1535 1
210 1695 1
210 1803 1
210 1998 1
210 2169 1
211 190 1
211 319 1
211 412 1
211 667 1
211 837 1
211 1059 1
211 1245 1
211 1536 1
211 1696 1
211 1804 1
211 1999 1
211 2170 1
212 191 1
212 320 1
212 413 1
212 668 1
212 902 1
212 1060 1
212 1310 1
212 1345 1
212 1697 1
212 1805 1
212 2000 1
212 2171 1
213 192 1
213 321 1
213 414 1
213 669 1
213 775 1
213 1061 1
213 1183 1
213 1346 1
213 1698 1
213 1806 1
213 2001 1
213 2172 1
214 1 1
214 322 1
214 415 1
214 670 1
214 840 1
214 1062 1
214 1248 1
214 1347 1
214 1699 1
214 1807 1
214 2002 1
214 2173 1
215 2 1
215 323 1
215 416 1
215 671 1
215 905 1
215 1063 1
215 1313 1
215 1348 1
215 1700 1
215 1808 1
215 2003 1
215 2174 1
216 3 1
216 324 1
216 417 1
216 672 1
216 778 1
216 1064 1
216 1186 1
216 1349 1
216 1701 1
216 1809 1
216 2004 1
216 2175 1
217 4 1
217 325 1
217 418 1
217 673 1
217 843 1
217 1065 1
217 1251 1
217 1350 1
217 1702 1
217 1810 1
217 2005 1
217 2176 1
218 5 1
218 326 1
218 419 1
218 674 1
218 908 1
218 1066 1
218 1316 1
218 1351 1
218 1703 1
218 1811 1
218 2006 1
218 2177 1
219 6 1
219 327 1
219 420 1
219 675 1
219 781 1
219 1067 1
219 1189 1
219 1352 1
219 1704 1
219 1812 1
219 2007 1
219 2178 1
220 7 1
220 328 1
220 421 1
220 676 1
220 846 1
220 1068 1
220 1254 1
220 1353 1
220 1705 1
220 1813 1
220 2008 1
220 2179 1
221 8 1
221 329 1
221 422 1
221 677 1
221 911 1
221 1069 1
221 1319 1
221 1354 1
221 1706 1
221 1814 1
221 2009 1
221 2180 1
222 9 1
222 330 1
222 423 1
222 678 1
222 784 1
222 1070 1
222 1192 1
222 1355 1
222 1707 1
222 1815 1
222 2010 1
222 2181 1
223 10 1
223 331 1
223 424 1
223 679 1
223 849 1
223 1071 1
223 1257 1
223 1356 1
223 1708 1
223 1816 1
223 2011 1
223 2182 1
224 11 1
224 332 1
224 425 1
224 680 1
224 914 1
224 1072 1
224 1322 1
224 1357 1
224 1709 1
224 1817 1
224 2012 1
224 2183 1
225 12 1
225 333 1
225 426 1
225 681 1
225 787 1
225 1073 1
225 1195 1
225 1358 1
225 1710 1
225 1818 1
225 2013 1
225 2184 1
226 13 1
226 334 1
226 427 1
226 682 1
226 852 1
226 1074 1
226 1260 1
226 1359 1
226 1711 1
226 1819 1
226 2014 1
226 2185 1
227 14 1
227 335 1
227 428 1
227 683 1
227 917 1
227 1075 1
227 1325 1
227 1360 1
227 1712 1
227 1820 1
227 2015 1
227 2186 1
228 15 1
228 336 1
228 429 1
228 684 1
228 790 1
228 1076 1
228 1198 1
228 1361 1
228 1713 1
228 1821 1
228 2016 1
228 2187 1
229 16 1
229 337 1
229 430 1
229 685 1
229 855 1
229 1077 1
229 1263 1
229 1362 1
229 1714 1
229 1822 1
229 2017 1
229 2188 1
230 17 1
230 338 1
230 431 1
230 686 1
230 920 1
230 1078 1
230 1328 1
230 1363 1
230 1715 1
230 1823 1
230 2018 1
230 2189 1
231 18 1
231 339 1
231 432 1
231 687 1
231 793 1
231 1079 1
231 1201 1
231 1364 1
231 1716 1
231 1824 1
231 2019 1
231 2190 1
232 19 1
232 340 1
232 433 1
232 688 1
232 858 1
232 1080 1
232 1266 1
232 1365 1
232 1717 1
232 1825 1
232 2020 1
232 2191 1
233 20 1
233 341 1
233 434 1
233 689 1
233 923 1
233 1081 1
233 1331 1
233 1366 1
233 1718 1
233 1826 1
233 2021 1
233 2192 1
234 21 1
234 342 1
234 435 1
234 690 1
234 796 1
234 1082 1
234 1204 1
234 1367 1
234 1719 1
234 1827 1
234 2022 1
234 2193 1
235 22 1
235 343 1
235 436 1
235 691 1
235 861 1
235 1083 1
235 1269 1
235 1368 1
235 1720 1
235 1828 1
235 2023 1
235 2194 1
236 23 1
236 344 1
236 437 1
236 692 1
236 926 1
236 1084 1
236 1334 1
236 1369 1
236 1721 1
236 1829 1
236 2024 1
236 2195 1
237 24 1
237 345 1
237 438 1
237 693 1
237 799 1
237 1085 1
237 1207 1
237 1370 1
237 1722 1
237 1830 1
237 2025 1
237 2196 1
238 25 1
238 346 1
238 439 1
238 694 1
238 864 1
238 1086 1
238 1272 1
238 1371 1
238 1723 1
238 1831 1
238 2026 1
238 2197 1
239 26 1
239 347 1
239 440 1
239 695 1
239 929 1
239 1087 1
239 1337 1
239 1372 1
239 1724 1
239 1832 1
239 2027 1
239 2198 1
240 27 1
240 348 1
240 441 1
240 696 1
240 802 1
240 1088 1
240 1210 1
240 1373 1
240 1725 1
240 1833 1
240 2028 1
240 2199 1
241 28 1
241 349 1
241 442 1
241 697 1
241 867 1
241 1089 1
241 1275 1
241 1374 1
241 1726 1
241 1834 1
241 2029 1
241 2200 1
242 29 1
242 350 1
242 443 1
242 698 1
242 932 1
242 1090 1
242 1340 1
242 1375 1
242 1727 1
242 1835 1
242 2030 1
242 2201 1
243 30 1
243 351 1
243 444 1
243 699 1
243 805 1
243 1091 1
243 1213 1
243 1376 1
243 1728 1
243 1836 1
243 2031 1
243 2202 1
244 31 1
244 352 1
244 445 1
244 700 1
244 870 1
244 1092 1
244 1278 1
244 1377 1
244 1537 1
244 1837 1
244 2032 1
244 2203 1
245 32 1
245 353 1
245 446 1
245 701 1
245 935 1
245 1093 1
245 1343 1
245 1378 1
245 1538 1
245 1838 1
245 2033 1
245 2204 1
246 33 1
246 354 1
246 447 1
246 702 1
246 808 1
246 1094 1
246 1216 1
246 1379 1
246 1539 1
246 1839 1
246 2034 1
246 2205 1
247 34 1
247 355 1
247 448 1
247 703 1
247 873 1
247 1095 1
247 1281 1
247 1380 1
247 1540 1
247 1840 1
247 2035 1
247 2206 1
248 35 1
248 356 1
248 449 1
248 704 1
248 938 1
248 1096 1
248 1154 1
248 1381 1
248 1541 1
248 1841 1
248 2036 1
248 2207 1
249 36 1
249 357 1
249 450 1
249 705 1
249 811 1
249 1097 1
249 1219 1
249 1382 1
249 1542 1
249 1842 1
249 2037 1
249 2208 1
250 37 1
250 358 1
250 451 1
250 706 1
250 876 1
250 1098 1
250 1284 1
250 1383 1
250 1543 1
250 1843 1
250 2038 1
250 2209 1
251 38 1
251 359 1
251 452 1
251 707 1
251 941 1
251 1099 1
251 1157 1
251 1384 1
251 1544 1
251 1844 1
251 2039 1
251 2210 1
252 39 1
252 360 1
252 453 1
252 708 1
252 814 1
252 1100 1
252 1222 1
252 1385 1
252 1545 1
252 1845 1
252 2040 1
252 2211 1
253 40 1
253 361 1
253 454 1
253 709 1
253 879 1
253 1101 1
253 1287 1
253 1386 1
253 1546 1
253 1846 1
253 2041 1
253 2212 1
254 41 1
254 362 1
254 455 1
254 710 1
254 944 1
254 1102 1
254 1160 1
254 1387 1
254 1547 1
254 1847 1
254 2042 1
254 2213 1
255 42 1
255 363 1
255 456 1
255 711 1
255 817 1
255 1103 1
255 1225 1
255 1388 1
255 1548 1
255 1848 1
255 2043 1
255 2214 1
256 43 1
256 364 1
256 457 1
256 712 1
256 882 1
256 1104 1
256 1290 1
256 1389 1
256 1549 1
256 1849 1
256 2044 1
256 2215 1
257 44 1
257 365 1
257 458 1
257 713 1
257 947 1
257 1105 1
257 1163 1
257 1390 1
257 1550 1
257 1850 1
257 2045 1
257 2216 1
258 45 1
258 366 1
258 459 1
258 714 1
258 820 1
258 1106 1
258 1228 1
258 1391 1
258 1551 1
258 1851 1
258 2046 1
258 2217 1
259 46 1
259 367 1
259 460 1
259 715 1
259 885 1
259 1107 1
259 1293 1
259 1392 1
259 1552 1
259 1852 1
259 2047 1
259 2218 1
260 47 1
260 368 1
260 461 1
260 716 1
260 950 1
260 1108 1
260 1166 1
260 1393 1
260 1553 1
260 1853 1
260 2048 1
260 2219 1
261 48 1
261 369 1
261 462 1
261 717 1
261 823 1
261 1109 1
261 1231 1
261 1394 1
261 1554 1
261 1854 1
261 2049 1
261 2220 1
262 49 1
262 370 1
262 463 1
262 718 1
262 888 1
262 1110 1
262 1296 1
262 1395 1
262 1555 1
262 1855 1
262 2050 1
262 2221 1
263 50 1
263 371 1
263 464 1
263 719 1
263 953 1
263 1111 1
263 1169 1
263 1396 1
263 1556 1
263 1856 1
263 2051 1
263 2222 1
264 51 1
264 372 1
264 465 1
264 720 1
264 826 1
264 1112 1
264 1234 1
264 1397 1
264 1557 1
264 1857 1
264 2052 1
264 2223 1
265 52 1
265 373 1
265 466 1
265 721 1
265 891 1
265 1113 1
265 1299 1
265 1398 1
265 1558 1
265 1858 1
265 2053 1
265 2224 1
266 53 1
266 374 1
266 467 1
266 722 1
266 956 1
266 1114 1
266 1172 1
266 1399 1
266 1559 1
266 1859 1
266 2054 1
266 2225 1
267 54 1
267 375 1
267 468 1
267 723 1
267 829 1
267 1115 1
267 1237 1
267 1400 1
267 1560 1
267 1860 1
267 2055 1
267 2226 1
268 55 1
268 376 1
268 469 1
268 724 1
268 894 1
268 1116 1
268 1302 1
268 1401 1
268 1561 1
268 1861 1
268 2056 1
268 2227 1
269 56 1
269 377 1
269 470 1
269 725 1
269 959 1
269 1117 1
269 1175 1
269 1402 1
269 1562 1
269 1862 1
269 2057 1
269 2228 1
270 57 1
270 378 1
270 471 1
270 726 1
270 832 1
270 1118 1
270 1240 1
270 1403 1
270 1563 1
270 1863 1
270 2058 1
270 2229 1
271 58 1
271 379 1
271 472 1
271 727 1
271 897 1
271 1119 1
271 1305 1
271 1404 1
271 1564 1
271 1864 1
271 2059 1
271 2230 1
272 59 1
272 380 1
272 473 1
272 728 1
272 770 1
272 1120 1
272 1178 1
272 1405 1
272 1565 1
272 1865 1
272 2060 1
272 2231 1
273 60 1
273 381 1
273 474 1
273 729 1
273 835 1
273 1121 1
273 1243 1
273 1406 1
273 1566 1
273 1866 1
273 2061 1
273 2232 1
274 61 1
274 382 1
274 475 1
274 730 1
274 900 1
274 1122 1
274 1308 1
274 1407 1
274 1567 1
274 1867 1
274 2062 1
274 2233 1
275 62 1
275 383 1
275 476 1
275 731 1
275 773 1
275 1123 1
275 1181 1
275 1408 1
275 1568 1
275 1868 1
275 2063 1
275 2234 1
276 63 1
276 384 1
276 477 1
276 732 1
276 838 1
276 1124 1
276 1246 1
276 1409 1
276 1569 1
276 1869 1
276 2064 1
276 2235 1
277 64 1
277 193 1
277 478 1
277 733 1
277 903 1
277 1125 1
277 1311 1
277 1410 1
277 1570 1
277 1870 1
277 2065 1
277 2236 1
278 65 1
278 194 1
278 479 1
278 734 1
278 776 1
278 1126 1
278 1184 1
278 1411 1
278 1571 1
278 1871 1
278 2066 1
278 2237 1
279 66 1
279 195 1
279 480 1
279 735 1
279 841 1
279 1127 1
279 1249 1
279 1412 1
279 1572 1
279 1872 1
279 2067 1
279 2238 1
280 67 1
280 196 1
280 481 1
280 736 1
280 906 1
280 1128 1
280 1314 1
280 1413 1
280 1573 1
280 1873 1
280 2068 1
280 2239 1
281 68 1
281 197 1
281 482 1
281 737 1
281 779 1
281 1129 1
281 1187 1
281 1414 1
281 1574 1
281 1874 1
281 2069 1
281 2240 1
282 69 1
282 198 1
282 483 1
282 738 1
282 844 1
282 1130 1
282 1252 1
282 1415 1
282 1575 1
282 1875 1
282 2070 1
282 2241 1
283 70 1
283 199 1
283 484 1
283 739 1
283 909 1
283 1131 1
283 1317 1
283 1416 1
283 1576 1
283 1876 1
283 2071 1
283 2242 1
284 71 1
284 200 1
284 485 1
284 740 1
284 782 1
284 1132 1
284 1190 1
284 1417 1
284 1577 1
284 1877 1
284 2072 1
284 2243 1
285 72 1
285 201 1
285 486 1
285 741 1
285 847 1
285 1133 1
285 1255 1
285 1418 1
285 1578 1
285 1878 1
285 2073 1
285 2244 1
286 73 1
286 202 1
286 487 1
286 742 1
286 912 1
286 1134 1
286 1320 1
286 1419 1
286 1579 1
286 1879 1
286 2074 1
286 2245 1
287 74 1
287 203 1
287 488 1
287 743 1
287 785 1
287 1135 1
287 1193 1
287 1420 1
287 1580 1
287 1880 1
287 2075 1
287 2246 1
288 75 1
288 204 1
288 489 1
288 744 1
288 850 1
288 1136 1
288 1258 1
288 1421 1
288 1581 1
288 1881 1
288 2076 1
288 2247 1
289 76 1
289 205 1
289 490 1
289 745 1
289 915 1
289 1137 1
289 1323 1
289 1422 1
289 1582 1
289 1882 1
289 2077 1
289 2248 1
290 77 1
290 206 1
290 491 1
290 746 1
290 788 1
290 1138 1
290 1196 1
290 1423 1
290 1583 1
290 1883 1
290 2078 1
290 2249 1
291 78 1
291 207 1
291 492 1
291 747 1
291 853 1
291 1139 1
291 1261 1
291 1424 1
291 1584 1
291 1884 1
291 2079 1
291 2250 1
292 79 1
292 208 1
292 493 1
292 748 1
292 918 1
292 1140 1
292 1326 1
292 1425 1
292 1585 1
292 1885 1
292 2080 1
292 2251 1
293 80 1
293 209 1
293 494 1
293 749 1
293 791 1
293 1141 1
293 1199 1
293 1426 1
293 1586 1
293 1886 1
293 2081 1
293 2252 1
294 81 1
294 210 1
294 495 1
294 750 1
294 856 1
294 1142 1
294 1264 1
294 1427 1
294 1587 1
294 1887 1
294 2082 1
294 2253 1
295 82 1
295 211 1
295 496 1
295 751 1
295 921 1
295 1143 1
295 1329 1
295 1428 1
295 1588 1
295 1888 1
295 2083 1
295 2254 1
296 83 1
296 212 1
296 497 1
296 752 1
296 794 1
296 1144 1
296 1202 1
296 1429 1
296 1589 1
296 1889 1
296 2084 1
296 2255 1
297 84 1
297 213 1
297 498 1
297 753 1
297 859 1
297 1145 1
297 1267 1
297 1430 1
297 1590 1
297 1890 1
297 2085 1
297 2256 1
298 85 1
298 214 1
298 499 1
298 754 1
298 924 1
298 1146 1
298 1332 1
298 1431 1
298 1591 1
298 1891 1
298 2086 1
298 2257 1
299 86 1
299 215 1
299 500 1
299 755 1
299 797 1
299 1147 1
299 1205 1
299 1432 1
299 1592 1
299 1892 1
299 2087 1
299 2258 1
300 87 1
300 216 1
300 501 1
300 756 1
300 862 1
300 1148 1
300 1270 1
300 1433 1
300 1593 1
300 1893 1
300 2088 1
300 2259 1
301 88 1
301 217 1
301 502 1
301 757 1
301 927 1
301 1149 1
301 1335 1
301 1434 1
301 1594 1
301 1894 1
301 2089 1
301 2260 1
302 89 1
302 218 1
302 503 1
302 758 1
302 800 1
302 1150 1
302 1208 1
302 1435 1
302 1595 1
302 1895 1
302 2090 1
302 2261 1
303 90 1
303 219 1
303 504 1
303 759 1
303 865 1
303 1151 1
303 1273 1
303 1436 1
303 1596 1
303 1896 1
303 2091 1
303 2262 1
304 91 1
304 220 1
304 505 1
304 760 1
304 930 1
304 1152 1
304 1338 1
304 1437 1
304 1597 1
304 1897 1
304 2092 1
304 2263 1
305 92 1
305 221 1
305 506 1
305 761 1
305 803 1
305 961 1
305 1211 1
305 1438 1
305 1598 1
305 1898 1
305 2093 1
305 2264 1
306 93 1
306 222 1
306 507 1
306 762 1
306 868 1
306 962 1
306 1276 1
306 1439 1
306 1599 1
306 1899 1
306 2094 1
306 2265 1
307 94 1
307 223 1
307 508 1
307 763 1
307 933 1
307 963 1
307 1341 1
307 1440 1
307 1600 1
307 1900 1
307 2095 1
307 2266 1
308 95 1
308 224 1
308 509 1
308 764 1
308 806 1
308 964 1
308 1214 1
308 1441 1
308 1601 1
308 1901 1
308 2096 1
308 2267 1
309 96 1
309 225 1
309 510 1
309 765 1
309 871 1
309 965 1
309 1279 1
309 1442 1
309 1602 1
309 1902 1
309 2097 1
309 2268 1
310 97 1
310 226 1
310 511 1
310 766 1
310 936 1
310 966 1
310 1344 1
310 1443 1
310 1603 1
310 1903 1
310 2098 1
310 2269 1
311 98 1
311 227 1
311 512 1
311 767 1
311 809 1
311 967 1
311 1217 1
311 1444 1
311 1604 1
311 1904 1
311 2099 1
311 2270 1
312 99 1
312 228 1
312 513 1
312 768 1
312 874 1
312 968 1
312 1282 1
312 1445 1
312 1605 1
312 1905 1
312 2100 1
312 2271 1
313 100 1
313 229 1
313 514 1
313 577 1
313 939 1
313 969 1
313 1155 1
313 1446 1
313 1606 1
313 1906 1
313 2101 1
313 2272 1
314 101 1
314 230 1
314 515 1
314 578 1
314 812 1
314 970 1
314 1220 1
314 1447 1
314 1607 1
314 1907 1
314 2102 1
314 2273 1
315 102 1
315 231 1
315 516 1
315 579 1
315 877 1
315 971 1
315 1285 1
315 1448 1
315 1608 1
315 1908 1
315 2103 1
315 2274 1
316 103 1
316 232 1
316 517 1
316 580 1
316 942 1
316 972 1
316 1158 1
316 1449 1
316 1609 1
316 1909 1
316 2104 1
316 2275 1
317 104 1
317 233 1
317 518 1
317 581 1
317 815 1
317 973 1
317 1223 1
317 1450 1
317 1610 1
317 1910 1
317 2105 1
317 2276 1
318 105 1
318 234 1
318 519 1
318 582 1
318 880 1
318 974 1
318 1288 1
318 1451 1
318 1611 1
318 1911 1
318 2106 1
318 2277 1
319 106 1
319 235 1
319 520 1
319 583 1
319 945 1
319 975 1
319 1161 1
319 1452 1
319 1612 1
319 1912 1
319 2107 1
319 2278 1
320 107 1
320 236 1
320 521 1
320 584 1
320 818 1
320 976 1
320 1226 1
320 1453 1
320 1613 1
320 1913 1
320 2108 1
320 2279 1
321 108 1
321 237 1
321 522 1
321 585 1
321 883 1
321 977 1
321 1291 1
321 1454 1
321 1614 1
321 1914 1
321 2109 1
321 2280 1
322 109 1
322 238 1
322 523 1
322 586 1
322 948 1
322 978 1
322 1164 1
322 1455 1
322 1615 1
322 1915 1
322 2110 1
322 2281 1
323 110 1
323 239 1
323 524 1
323 587 1
323 821 1
323 979 1
323 1229 1
323 1456 1
323 1616 1
323 1916 1
323 2111 1
323 2282 1
324 111 1
324 240 1
324 525 1
324 588 1
324 886 1
324 980 1
324 1294 1
324 1457 1
324 1617 1
324 1917 1
324 2112 1
324 2283 1
325 112 1
325 241 1
325 526 1
325 589 1
325 951 1
325 981 1
325 1167 1
325 1458 1
325 1618 1
325 1918 1
325 1921 1
325 2284 1
326 113 1
326 242 1
326 527 1
326 590 1
326 824 1
326 982 1
326 1232 1
326 1459 1
326 1619 1
326 1919 1
326 1922 1
326 2285 1
327 114 1
327 243 1
327 528 1
327 591 1
327 889 1
327 983 1
327 1297 1
327 1460 1
327 1620 1
327 1920 1
327 1923 1
327 2286 1
328 115 1
328 244 1
328 529 1
328 592 1
328 954 1
328 984 1
328 1170 1
328 1461 1
328 1621 1
328 1729 1
328 1924 1
328 2287 1
329 116 1
329 245 1
329 530 1
329 593 1
329 827 1
329 985 1
329 1235 1
329 1462 1
329 1622 1
329 1730 1
329 1925 1
329 2288 1
330 117 1
330 246 1
330 531 1
330 594 1
330 892 1
330 986 1
330 1300 1
330 1463 1
330 1623 1
330 1731 1
330 1926 1
330 2289 1
331 118 1
331 247 1
331 532 1
331 595 1
331 957 1
331 987 1
331 1173 1
331 1464 1
331 1624 1
331 1732 1
331 1927 1
331 2290 1
332 119 1
332 248 1
332 533 1
332 596 1
332 830 1
332 988 1
332 1238 1
332 1465 1
332 1625 1
332 1733 1
332 1928 1
332 2291 1
333 120 1
333 249 1
333 534 1
333 597 1
333 895 1
333 989 1
333 1303 1
333 1466 1
333 1626 1
333 1734 1
333 1929 1
333 2292 1
334 121 1
334 250 1
334 535 1
334 598 1
334 960 1
334 990 1
334 1176 1
334 1467 1
334 1627 1
334 1735 1
334 1930 1
334 2293 1
335 122 1
335 251 1
335 536 1
335 599 1
335 833 1
335 991 1
335 1241 1
335 1468 1
335 1628 1
335 1736 1
335 1931 1
335 2294 1
336 123 1
336 252 1
336 537 1
336 600 1
336 898 1
336 992 1
336 1306 1
336 1469 1
336 1629 1
336 1737 1
336 1932 1
336 2295 1
337 124 1
337 253 1
337 538 1
337 601 1
337 771 1
337 993 1
337 1179 1
337 1470 1
337 1630 1
337 1738 1
337 1933 1
337 2296 1
338 125 1
338 254 1
338 539 1
338 602 1
338 836 1
338 994 1
338 1244 1
338 1471 1
338 1631 1
338 1739 1
338 1934 1
338 2297 1
339 126 1
339 255 1
339 540 1
339 603 1
339 901 1
339 995 1
339 1309 1
339 1472 1
339 1632 1
339 1740 1
339 1935 1
339 2298 1
340 127 1
340 256 1
340 541 1
340 604 1
340 774 1
340 996 1
340 1182 1
340 1473 1
340 1633 1
340 1741 1
340 1936 1
340 2299 1
341 128 1
341 257 1
341 542 1
341 605 1
341 839 1
341 997 1
341 1247 1
341 1474 1
341 1634 1
341 1742 1
341 1937 1
341 2300 1
342 129 1
342 258 1
342 543 1
342 606 1
342 904 1
342 998 1
342 1312 1
342 1475 1
342 1635 1
342 1743 1
342 1938 1
342 2301 1
343 130 1
343 259 1
343 544 1
343 607 1
343 777 1
343 999 1
343 1185 1
343 1476 1
343 1636 1
343 1744 1
343 1939 1
343 2302 1
344 131 1
344 260 1
344 545 1
344 608 1
344 842 1
344 1000 1
344 1250 1
344 1477 1
344 1637 1
344 1745 1
344 1940 1
344 2303 1
345 132 1
345 261 1
345 546 1
345 609 1
345 907 1
345 1001 1
345 1315 1
345 1478 1
345 1638 1
345 1746 1
345 1941 1
345 2304 1
346 133 1
346 262 1
346 547 1
346 610 1
346 780 1
346 1002 1
346 1188 1
346 1479 1
346 1639 1
346 1747 1
346 1942 1
346 2113 1
347 134 1
347 263 1
347 548 1
347 611 1
347 845 1
347 1003 1
347 1253 1
347 1480 1
347 1640 1
347 1748 1
347 1943 1
347 2114 1
348 135 1
348 264 1
348 549 1
348 612 1
348 910 1
348 1004 1
348 1318 1
348 1481 1
348 1641 1
348 1749 1
348 1944 1
348 2115 1
349 136 1
349 265 1
349 550 1
349 613 1
349 783 1
349 1005 1
349 1191 1
349 1482 1
349 1642 1
349 1750 1
349 1945 1
349 2116 1
350 137 1
350 266 1
350 551 1
350 614 1
350 848 1
350 1006 1
350 1256 1
350 1483 1
350 1643 1
350 1751 1
350 1946 1
350 2117 1
351 138 1
351 267 1
351 552 1
351 615 1
351 913 1
351 1007 1
351 1321 1
351 1484 1
351 1644 1
351 1752 1
351 1947 1
351 2118 1
352 139 1
352 268 1
352 553 1
352 616 1
352 786 1
352 1008 1
352 1194 1
352 1485 1
352 1645 1
352 1753 1
352 1948 1
352 2119 1
353 140 1
353 269 1
353 554 1
353 617 1
353 851 1
353 1009 1
353 1259 1
353 1486 1
353 1646 1
353 1754 1
353 1949 1
353 2120 1
354 141 1
354 270 1
354 555 1
354 618 1
354 916 1
354 1010 1
354 1324 1
354 1487 1
354 1647 1
354 1755 1
354 1950 1
354 2121 1
355 142 1
355 271 1
355 556 1
355 619 1
355 789 1
355 1011 1
355 1197 1
355 1488 1
355 1648 1
355 1756 1
355 1951 1
355 2122 1
356 143 1
356 272 1
356 557 1
356 620 1
356 854 1
356 1012 1
356 1262 1
356 1489 1
356 1649 1
356 1757 1
356 1952 1
356 2123 1
357 144 1
357 273 1
357 558 1
357 621 1
357 919 1
357 1013 1
357 1327 1
357 1490 1
357 1650 1
357 1758 1
357 1953 1
357 2124 1
358 145 1
358 274 1
358 559 1
358 622 1
358 792 1
358 1014 1
358 1200 1
358 1491 1
358 1651 1
358 1759 1
358 1954 1
358 2125 1
359 146 1
359 275 1
359 560 1
359 623 1
359 857 1
359 1015 1
359 1265 1
359 1492 1
359 1652 1
359 1760 1
359 1955 1
359 2126 1
360 147 1
360 276 1
360 561 1
360 624 1
360 922 1
360 1016 1
360 1330 1
360 1493 1
360 1653 1
360 1761 1
360 1956 1
360 2127 1
361 148 1
361 277 1
361 562 1
361 625 1
361 795 1
361 1017 1
361 1203 1
361 1494 1
361 1654 1
361 1762 1
361 1957 1
361 2128 1
362 149 1
362 278 1
362 563 1
362 626 1
362 860 1
362 1018 1
362 1268 1
362 1495 1
362 1655 1
362 1763 1
362 1958 1
362 2129 1
363 150 1
363 279 1
363 564 1
363 627 1
363 925 1
363 1019 1
363 1333 1
363 1496 1
363 1656 1
363 1764 1
363 1959 1
363 2130 1
364 151 1
364 280 1
364 565 1
364 628 1
364 798 1
364 1020 1
364 1206 1
364 1497 1
364 1657 1
364 1765 1
364 1960 1
364 2131 1
365 152 1
365 281 1
365 566 1
365 629 1
365 863 1
365 1021 1
365 1271 1
365 1498 1
365 1658 1
365 1766 1
365 1961 1
365 2132 1
366 153 1
366 282 1
366 567 1
366 630 1
366 928 1
366 1022 1
366 1336 1
366 1499 1
366 1659 1
366 1767 1
366 1962 1
366 2133 1
367 154 1
367 283 1
367 568 1
367 631 1
367 801 1
367 1023 1
367 1209 1
367 1500 1
367 1660 1
367 1768 1
367 1963 1
367 2134 1
368 155 1
368 284 1
368 569 1
368 632 1
368 866 1
368 1024 1
368 1274 1
368 1501 1
368 1661 1
368 1769 1
368 1964 1
368 2135 1
369 156 1
369 285 1
369 570 1
369 633 1
369 931 1
369 1025 1
369 1339 1
369 1502 1
369 1662 1
369 1770 1
369 1965 1
369 2136 1
370 157 1
370 286 1
370 571 1
370 634 1
370 804 1
370 1026 1
370 1212 1
370 1503 1
370 1663 1
370 1771 1
370 1966 1
370 2137 1
371 158 1
371 287 1
371 572 1
371 635 1
371 869 1
371 1027 1
371 1277 1
371 1504 1
371 1664 1
371 1772 1
371 1967 1
371 2138 1
372 159 1
372 288 1
372 573 1
372 636 1
372 934 1
372 1028 1
372 1342 1
372 1505 1
372 1665 1
372 1773 1
372 1968 1
372 2139 1
373 160 1
373 289 1
373 574 1
373 637 1
373 807 1
373 1029 1
373 1215 1
373 1506 1
373 1666 1
373 1774 1
373 1969 1
373 2140 1
374 161 1
374 290 1
374 575 1
374 638 1
374 872 1
374 1030 1
374 1280 1
374 1507 1
374 1667 1
374 1775 1
374 1970 1
374 2141 1
375 162 1
375 291 1
375 576 1
375 639 1
375 937 1
375 1031 1
375 1153 1
375 1508 1
375 1668 1
375 1776 1
375 1971 1
375 2142 1
376 163 1
376 292 1
376 385 1
376 640 1
376 810 1
376 1032 1
376 1218 1
376 1509 1
376 1669 1
376 1777 1
376 1972 1
376 2143 1
377 164 1
377 293 1
377 386 1
377 641 1
377 875 1
377 1033 1
377 1283 1
377 1510 1
377 1670 1
377 1778 1
377 1973 1
377 2144 1
378 165 1
378 294 1
378 387 1
378 642 1
378 940 1
378 1034 1
378 1156 1
378 1511 1
378 1671 1
378 1779 1
378 1974 1
378 2145 1
379 166 1
379 295 1
379 388 1
379 643 1
379 813 1
379 1035 1
379 1221 1
379 1512 1
379 1672 1
379 1780 1
379 1975 1
379 2146 1
380 167 1
380 296 1
380 389 1
380 644 1
380 878 1
380 1036 1
380 1286 1
380 1513 1
380 1673 1
380 1781 1
380 1976 1
380 2147 1
381 168 1
381 297 1
381 390 1
381 645 1
381 943 1
381 1037 1
381 1159 1
381 1514 1
381 1674 1
381 1782 1
381 1977 1
381 2148 1
382 169 1
382 298 1
382 391 1
382 646 1
382 816 1
382 1038 1
382 1224 1
382 1515 1
382 1675 1
382 1783 1
382 1978 1
382 2149 1
383 170 1
383 299 1
383 392 1
383 647 1
383 881 1
383 1039 1
383 1289 1
383 1516 1
383 1676 1
383 1784 1
383 1979 1
383 2150 1
384 171 1
384 300 1
384 393 1
384 648 1
384 946 1
384 1040 1
384 1162 1
384 1517 1
384 1677 1
384 1785 1
384 1980 1
384 2151 1
385 81 1
385 364 1
385 493 1
385 586 1
385 841 1
385 1011 1
385 1192 1
385 1419 1
385 1710 1
385 1870 1
385 1978 1
385 2173 1
386 82 1
386 365 1
386 494 1
386 587 1
386 842 1
386 1076 1
386 1193 1
386 1484 1
386 1711 1
386 1871 1
386 1979 1
386 2174 1
387 83 1
387 366 1
387 495 1
387 588 1
387 843 1
387 1141 1
387 1194 1
387 1357 1
387 1712 1
387 1872 1
387 1980 1
387 2175 1
388 84 1
388 367 1
388 496 1
388 589 1
388 844 1
388 1014 1
388 1195 1
388 1422 1
388 1713 1
388 1873 1
388 1981 1
388 2176 1
389 85 1
389 368 1
389 497 1
389 590 1
389 845 1
389 1079 1
389 1196 1
389 1487 1
389 1714 1
389 1874 1
389 1982 1
389 2177 1
390 86 1
390 369 1
390 498 1
390 591 1
390 846 1
390 1144 1
390 1197 1
390 1360 1
390 1715 1
390 1875 1
390 1983 1
390 2178 1
391 87 1
391 370 1
391 499 1
391 592 1
391 847 1
391 1017 1
391 1198 1
391 1425 1
391 1716 1
391 1876 1
391 1984 1
391 2179 1
392 88 1
392 371 1
392 500 1
392 593 1
392 848 1
392 1082 1
392 1199 1
392 1490 1
392 1717 1
392 1877 1
392 1985 1
392 2180 1
393 89 1
393 372 1
393 501 1
393 594 1
393 849 1
393 1147 1
393 1200 1
393 1363 1
393 1718 1
393 1878 1
393 1986 1
393 2181 1
394 90 1
394 373 1
394 502 1
394 595 1
394 850 1
394 1020 1
394 1201 1
394 1428 1
394 1719 1
394 1879 1
394 1987 1
394 2182 1
395 91 1
395 374 1
395 503 1
395 596 1
395 851 1
395 1085 1
395 1202 1
395 1493 1
395 1720 1
395 1880 1
395 1988 1
395 2183 1
396 92 1
396 375 1
396 504 1
396 597 1
396 852 1
396 1150 1
396 1203 1
396 1366 1
396 1721 1
396 1881 1
396 1989 1
396 2184 1
397 93 1
397 376 1
397 505 1
397 598 1
397 853 1
397 1023 1
397 1204 1
397 1431 1
397 1722 1
397 1882 1
397 1990 1
397 2185 1
398 94 1
398 377 1
398 506 1
398 599 1
398 854 1
398 1088 1
398 1205 1
398 1496 1
398 1723 1
398 1883 1
398 1991 1
398 2186 1
399 95 1
399 378 1
399 507 1
399 600 1
399 855 1
399 961 1
399 1206 1
399 1369 1
399 1724 1
399 1884 1
399 1992 1
399 2187 1
400 96 1
400 379 1
400 508 1
400 601 1
400 856 1
400 1026 1
400 1207 1
400 1434 1
400 1725 1
400 1885 1
400 1993 1
400 2188 1
401 97 1
401 380 1
401 509 1
401 602 1
401 857 1
401 1091 1
401 1208 1
401 1499 1
401 1726 1
401 1886 1
401 1994 1
401 2189 1
402 98 1
402 381 1
402 510 1
402 603 1
402 858 1
402 964 1
402 1209 1
402 1372 1
402 1727 1
402 1887 1
402 1995 1
402 2190 1
403 99 1
403 382 1
403 511 1
403 604 1
403 859 1
403 1029 1
403 1210 1
403 1437 1
403 1728 1
403 1888 1
403 1996 1
403 2191 1
404 100 1
404 383 1
404 512 1
404 605 1
404 860 1
404 1094 1
404 1211 1
404 1502 1
404 1537 1
404 1889 1
404 1997 1
404 2192 1
405 101 1
405 384 1
405 513 1
405 606 1
405 861 1
405 967 1
405 1212 1
405 1375 1
405 1538 1
405 1890 1
405 1998 1
405 2193 1
406 102 1
406 193 1
406 514 1
406 607 1
406 862 1
406 1032 1
406 1213 1
406 1440 1
406 1539 1
406 1891 1
406 1999 1
406 2194 1
407 103 1
407 194 1
407 515 1
407 608 1
407 863 1
407 1097 1
407 1214 1
407 1505 1
407 1540 1
407 1892 1
407 2000 1
407 2195 1
408 104 1
408 195 1
408 516 1
408 609 1
408 864 1
408 970 1
408 1215 1
408 1378 1
408 1541 1
408 1893 1
408 2001 1
408 2196 1
409 105 1
409 196 1
409 517 1
409 610 1
409 865 1
409 1035 1
409 1216 1
409 1443 1
409 1542 1
409 1894 1
409 2002 1
409 2197 1
410 106 1
410 197 1
410 518 1
410 611 1
410 866 1
410 1100 1
410 1217 1
410 1508 1
410 1543 1
410 1895 1
410 2003 1
410 2198 1
411 107 1
411 198 1
411 519 1
411 612 1
411 867 1
411 973 1
411 1218 1
411 1381 1
411 1544 1
411 1896 1
411 2004 1
411 2199 1
412 108 1
412 199 1
412 520 1
412 613 1
412 868 1
412 1038 1
412 1219 1
412 1446 1
412 1545 1
412 1897 1
412 2005 1
412 2200 1
413 109 1
413 200 1
413 521 1
413 614 1
413 869 1
413 1103 1
413 1220 1
413 1511 1
413 1546 1
413 1898 1
413 2006 1
413 2201 1
414 110 1
414 201 1
414 522 1
414 615 1
414 870 1
414 976 1
414 1221 1
414 1384 1
414 1547 1
414 1899 1
414 2007 1
414 2202 1
415 111 1
415 202 1
415 523 1
415 616 1
415 871 1
415 1041 1
415 1222 1
415 1449 1
415 1548 1
415 1900 1
415 2008 1
415 2203 1
416 112 1
416 203 1
416 524 1
416 617 1
416 872 1
416 1106 1
416 1223 1
416 1514 1
416 1549 1
416 1901 1
416 2009 1
416 2204 1
417 113 1
417 204 1
417 525 1
417 618 1
417 873 1
417 979 1
417 1224 1
417 1387 1
417 1550 1
417 1902 1
417 2010 1
417 2205 1
418 114 1
418 205 1
418 526 1
418 619 1
418 874 1
418 1044 1
418 1225 1
418 1452 1
418 1551 1
418 1903 1
418 2011 1
418 2206 1
419 115 1
419 206 1
419 527 1
419 620 1
419 875 1
419 1109 1
419 1226 1
419 1517 1
419 1552 1
419 1904 1
419 2012 1
419 2207 1
420 116 1
420 207 1
420 528 1
420 621 1
420 876 1
420 982 1
420 1227 1
420 1390 1
420 1553 1
420 1905 1
420 2013 1
420 2208 1
421 117 1
421 208 1
421 529 1
421 622 1
421 877 1
421 1047 1
421 1228 1
421 1455 1
421 1554 1
421 1906 1
421 2014 1
421 2209 1
422 118 1
422 209 1
422 530 1
422 623 1
422 878 1
422 1112 1
422 1229 1
422 1520 1
422 1555 1
422 1907 1
422 2015 1
422 2210 1
423 119 1
423 210 1
423 531 1
423 624 1
423 879 1
423 985 1
423 1230 1
423 1393 1
423 1556 1
423 1908 1
423 2016 1
423 2211 1
424 120 1
424 211 1
424 532 1
424 625 1
424 880 1
424 1050 1
424 1231 1
424 1458 1
424 1557 1
424 1909 1
424 2017 1
424 2212 1
425 121 1
425 212 1
425 533 1
425 626 1
425 881 1
425 1115 1
425 1232 1
425 1523 1
425 1558 1
425 1910 1
425 2018 1
425 2213 1
426 122 1
426 213 1
426 534 1
426 627 1
426 882 1
426 988 1
426 1233 1
426 1396 1
426 1559 1
426 1911 1
426 2019 1
426 2214 1
427 123 1
427 214 1
427 535 1
427 628 1
427 883 1
427 1053 1
427 1234 1
427 1461 1
427 1560 1
427 1912 1
427 2020 1
427 2215 1
428 124 1
428 215 1
428 536 1
428 629 1
428 884 1
428 1118 1
428 1235 1
428 1526 1
428 1561 1
428 1913 1
428 2021 1
428 2216 1
429 125 1
429 216 1
429 537 1
429 630 1
429 885 1
429 991 1
429 1236 1
429 1399 1
429 1562 1
429 1914 1
429 2022 1
429 2217 1
430 126 1
430 217 1
430 538 1
430 631 1
430 886 1
430 1056 1
430 1237 1
430 1464 1
430 1563 1
430 1915 1
430 2023 1
430 2218 1
431 127 1
431 218 1
431 539 1
431 632 1
431 887 1
431 1121 1
431 1238 1
431 1529 1
431 1564 1
431 1916 1
431 2024 1
431 2219 1
432 128 1
432 219 1
432 540 1
432 633 1
432 888 1
432 994 1
432 1239 1
432 1402 1
432 1565 1
432 1917 1
432 2025 1
432 2220 1
433 129 1
433 220 1
433 541 1
433 634 1
433 889 1
433 1059 1
433 1240 1
433 1467 1
433 1566 1
433 1918 1
433 2026 1
433 2221 1
434 130 1
434 221 1
434 542 1
434 635 1
434 890 1
434 1124 1
434 1241 1
434 1532 1
434 1567 1
434 1919 1
434 2027 1
434 2222 1
435 131 1
435 222 1
435 543 1
435 636 1
435 891 1
435 997 1
435 1242 1
435 1405 1
435 1568 1
435 1920 1
435 2028 1
435 2223 1
436 132 1
436 223 1
436 544 1
436 637 1
436 892 1
436 1062 1
436 1243 1
436 1470 1
436 1569 1
436 1729 1
436 2029 1
436 2224 1
437 133 1
437 224 1
437 545 1
437 638 1
437 893 1
437 1127 1
437 1244 1
437 1535 1
437 1570 1
437 1730 1
437 2030 1
437 2225 1
438 134 1
438 225 1
438 546 1
438 639 1
438 894 1
438 1000 1
438 1245 1
438 1408 1
438 1571 1
438 1731 1
438 2031 1
438 2226 1
439 135 1
439 226 1
439 547 1
439 640 1
439 895 1
439 1065 1
439 1246 1
439 1473 1
439 1572 1
439 1732 1
439 2032 1
439 2227 1
440 136 1
440 227 1
440 548 1
440 641 1
440 896 1
440 1130 1
440 1247 1
440 1346 1
440 1573 1
440 1733 1
440 2033 1
440 2228 1
441 137 1
441 228 1
441 549 1
441 642 1
441 897 1
441 1003 1
441 1248 1
441 1411 1
441 1574 1
441 1734 1
441 2034 1
441 2229 1
442 138 1
442 229 1
442 550 1
442 643 1
442 898 1
442 1068 1
442 1249 1
442 1476 1
442 1575 1
442 1735 1
442 2035 1
442 2230 1
443 139 1
443 230 1
443 551 1
443 644 1
443 899 1
443 1133 1
443 1250 1
443 1349 1
443 1576 1
443 1736 1
443 2036 1
443 2231 1
444 140 1
444 231 1
444 552 1
444 645 1
444 900 1
444 1006 1
444 1251 1
444 1414 1
444 1577 1
444 1737 1
444 2037 1
444 2232 1
445 141 1
445 232 1
445 553 1
445 646 1
445 901 1
445 1071 1
445 1252 1
445 1479 1
445 1578 1
445 1738 1
445 2038 1
445 2233 1
446 142 1
446 233 1
446 554 1
446 647 1
446 902 1
446 1136 1
446 1253 1
446 1352 1
446 1579 1
446 1739 1
446 2039 1
446 2234 1
447 143 1
447 234 1
447 555 1
447 648 1
447 903 1
447 1009 1
447 1254 1
447 1417 1
447 1580 1
447 1740 1
447 2040 1
447 2235 1
448 144 1
448 235 1
448 556 1
448 649 1
448 904 1
448 1074 1
448 1255 1
448 1482 1
448 1581 1
448 1741 1
448 2041 1
448 2236 1
449 145 1
449 236 1
449 557 1
449 650 1
449 905 1
449 1139 1
449 1256 1
449 1355 1
449 1582 1
449 1742 1
449 2042 1
449 2237 1
450 146 1
450 237 1
450 558 1
450 651 1
450 906 1
450 1012 1
450 1257 1
450 1420 1
450 1583 1
450 1743 1
450 2043 1
450 2238 1
451 147 1
451 238 1
451 559 1
451 652 1
451 907 1
451 1077 1
451 1258 1
451 1485 1
451 1584 1
451 1744 1
451 2044 1
451 2239 1
452 148 1
452 239 1
452 560 1
452 653 1
452 908 1
452 1142 1
452 1259 1
452 1358 1
452 1585 1
452 1745 1
452 2045 1
452 2240 1
453 149 1
453 240 1
453 561 1
453 654 1
453 909 1
453 1015 1
453 1260 1
453 1423 1
453 1586 1
453 1746 1
453 2046 1
453 2241 1
454 150 1
454 241 1
454 562 1
454 655 1
454 910 1
454 1080 1
454 1261 1
454 1488 1
454 1587 1
454 1747 1
454 2047 1
454 2242 1
455 151 1
455 242 1
455 563 1
455 656 1
455 911 1
455 1145 1
455 1262 1
455 1361 1
455 1588 1
455 1748 1
455 2048 1
455 2243 1
456 152 1
456 243 1
456 564 1
456 657 1
456 912 1
456 1018 1
456 1263 1
456 1426 1
456 1589 1
456 1749 1
456 2049 1
456 2244 1
457 153 1
457 244 1
457 565 1
457 658 1
457 913 1
457 1083 1
457 1264 1
457 1491 1
457 1590 1
457 1750 1
457 2050 1
457 2245 1
458 154 1
458 245 1
458 566 1
458 659 1
458 914 1
458 1148 1
458 1265 1
458 1364 1
458 1591 1
458 1751 1
458 2051 1
458 2246 1
459 155 1
459 246 1
459 567 1
459 660 1
459 915 1
459 1021 1
459 1266 1
459 1429 1
459 1592 1
459 1752 1
459 2052 1
459 2247 1
460 156 1
460 247 1
460 568 1
460 661 1
460 916 1
460 1086 1
460 1267 1
460 1494 1
460 1593 1
460 1753 1
460 2053 1
460 2248 1
461 157 1
461 248 1
461 569 1
461 662 1
461 917 1
461 1151 1
461 1268 1
461 1367 1
461 1594 1
461 1754 1
461 2054 1
461 2249 1
462 158 1
462 249 1
462 570 1
462 663 1
462 918 1
462 1024 1
462 1269 1
462 1432 1
462 1595 1
462 1755 1
462 2055 1
462 2250 1
463 159 1
463 250 1
463 571 1
463 664 1
463 919 1
463 1089 1
463 1270 1
463 1497 1
463 1596 1
463 1756 1
463 2056 1
463 2251 1
464 160 1
464 251 1
464 572 1
464 665 1
464 920 1
464 962 1
464 1271 1
464 1370 1
464 1597 1
464 1757 1
464 2057 1
464 2252 1
465 161 1
465 252 1
465 573 1
465 666 1
465 921 1
465 1027 1
465 1272 1
465 1435 1
465 1598 1
465 1758 1
465 2058 1
465 2253 1
466 162 1
466 253 1
466 574 1
466 667 1
466 922 1
466 1092 1
466 1273 1
466 1500 1
466 1599 1
466 1759 1
466 2059 1
466 2254 1
467 163 1
467 254 1
467 575 1
467 668 1
467 923 1
467 965 1
467 1274 1
467 1373 1
467 1600 1
467 1760 1
467 2060 1
467 2255 1
468 164 1
468 255 1
468 576 1
468 669 1
468 924 1
468 1030 1
468 1275 1
468 1438 1
468 1601 1
468 1761 1
468 2061 1
468 2256 1
469 165 1
469 256 1
469 385 1
469 670 1
469 925 1
469 1095 1
469 1276 1
469 1503 1
469 1602 1
469 1762 1
469 2062 1
469 2257 1
470 166 1
470 257 1
470 386 1
470 671 1
470 926 1
470 968 1
470 1277 1
470 1376 1
470 1603 1
470 1763 1
470 2063 1
470 2258 1
471 167 1
471 258 1
471 387 1
471 672 1
471 927 1
471 1033 1
471 1278 1
471 1441 1
471 1604 1
471 1764 1
471 2064 1
471 2259 1
472 168 1
472 259 1
472 388 1
472 673 1
472 928 1
472 1098 1
472 1279 1
472 1506 1
472 1605 1
472 1765 1
472 2065 1
472 2260 1
473 169 1
473 260 1
473 389 1
473 674 1
473 929 1
473 971 1
473 1280 1
473 1379 1
473 1606 1
473 1766 1
473 2066 1
473 2261 1
474 170 1
474 261 1
474 390 1
474 675 1
474 930 1
474 1036 1
474 1281 1
474 1444 1
474 1607 1
474 1767 1
474 2067 1
474 2262 1
475 171 1
475 262 1
475 391 1
475 676 1
475 931 1
475 1101 1
475 1282 1
475 1509 1
475 1608 1
475 1768 1
475 2068 1
475 2263 1
476 172 1
476 263 1
476 392 1
476 677 1
476 932 1
476 974 1
476 1283 1
476 1382 1
476 1609 1
476 1769 1
476 2069 1
476 2264 1
477 173 1
477 264 1
477 393 1
477 678 1
477 933 1
477 1039 1
477 1284 1
477 1447 1
477 1610 1
477 1770 1
477 2070 1
477 2265 1
478 174 1
478 265 1
478 394 1
478 679 1
478 934 1
478 1104 1
478 1285 1
478 1512 1
478 1611 1
478 1771 1
478 2071 1
478 2266 1
479 175 1
479 266 1
479 395 1
479 680 1
479 935 1
479 977 1
479 1286 1
479 1385 1
479 1612 1
479 1772 1
479 2072 1
479 2267 1
480 176 1
480 267 1
480 396 1
480 681 1
480 936 1
480 1042 1
480 1287 1
480 1450 1
480 1613 1
480 1773 1
480 2073 1
480 2268 1
481 177 1
481 268 1
481 397 1
481 682 1
481 937 1
481 1107 1
481 1288 1
481 1515 1
481 1614 1
481 1774 1
481 2074 1
481 2269 1
482 178 1
482 269 1
482 398 1
482 683 1
482 938 1
482 980 1
482 1289 1
482 1388 1
482 1615 1
482 1775 1
482 2075 1
482 2270 1
483 179 1
483 270 1
483 399 1
483 684 1
483 939 1
483 1045 1
483 1290 1
483 1453 1
483 1616 1
483 1776 1
483 2076 1
483 2271 1
484 180 1
484 271 1
484 400 1
484 685 1
484 940 1
484 1110 1
484 1291 1
484 1518 1
484 1617 1
484 1777 1
484 2077 1
484 2272 1
485 181 1
485 272 1
485 401 1
485 686 1
485 941 1
485 983 1
485 1292 1
485 1391 1
485 1618 1
485 1778 1
485 2078 1
485 2273 1
486 182 1
486 273 1
486 402 1
486 687 1
486 942 1
486 1048 1
486 1293 1
486 1456 1
486 1619 1
486 1779 1
486 2079 1
486 2274 1
487 183 1
487 274 1
487 403 1
487 688 1
487 943 1
487 1113 1
487 1294 1
487 1521 1
487 1620 1
487 1780 1
487 2080 1
487 2275 1
488 184 1
488 275 1
488 404 1
488 689 1
488 944 1
488 986 1
488 1295 1
488 1394 1
488 1621 1
488 1781 1
488 2081 1
488 2276 1
489 185 1
489 276 1
489 405 1
489 690 1
489 945 1
489 1051 1
489 1296 1
489 1459 1
489 1622 1
489 1782 1
489 2082 1
489 2277 1
490 186 1
490 277 1
490 406 1
490 691 1
490 946 1
490 1116 1
490 1297 1
490 1524 1
490 1623 1
490 1783 1
490 2083 1
490 2278 1
491 187 1
491 278 1
491 407 1
491 692 1
491 947 1
491 989 1
491 1298 1
491 1397 1
491 1624 1
491 1784 1
491 2084 1
491 2279 1
492 188 1
492 279 1
492 408 1
492 693 1
492 948 1
492 1054 1
492 1299 1
492 1462 1
492 1625 1
492 1785 1
492 2085 1
492 2280 1
493 189 1
493 280 1
493 409 1
493 694 1
493 949 1
493 1119 1
493 1300 1
493 1527 1
493 1626 1
493 1786 1
493 2086 1
493 2281 1
494 190 1
494 281 1
494 410 1
494 695 1
494 950 1
494 992 1
494 1301 1
494 1400 1
494 1627 1
494 1787 1
494 2087 1
494 2282 1
495 191 1
495 282 1
495 411 1
495 696 1
495 951 1
495 1057 1
495 1302 1
495 1465 1
495 1628 1
495 1788 1
495 2088 1
495 2283 1
496 192 1
496 283 1
496 412 1
496 697 1
496 952 1
496 1122 1
496 1303 1
496 1530 1
496 1629 1
496 1789 1
496 2089 1
496 2284 1
497 1 1
497 284 1
497 413 1
497 698 1
497 953 1
497 995 1
497 1304 1
497 1403 1
497 1630 1
497 1790 1
497 2090 1
497 2285 1
498 2 1
498 285 1
498 414 1
498 699 1
498 954 1
498 1060 1
498 1305 1
498 1468 1
498 1631 1
498 1791 1
498 2091 1
498 2286 1
499 3 1
499 286 1
499 415 1
499 700 1
499 955 1
499 1125 1
499 1306 1
499 1533 1
499 1632 1
499 1792 1
499 2092 1
499 2287 1
500 4 1
500 287 1
500 416 1
500 701 1
500 956 1
500 998 1
500 1307 1
500 1406 1
500 1633 1
500 1793 1
500 2093 1
500 2288 1
501 5 1
501 288 1
501 417 1
501 702 1
501 957 1
501 1063 1
501 1308 1
501 1471 1
501 1634 1
501 1794 1
501 2094 1
501 2289 1
502 6 1
502 289 1
502 418 1
502 703 1
502 958 1
502 1128 1
502 1309 1
502 1536 1
502 1635 1
502 1795 1
502 2095 1
502 2290 1
503 7 1
503 290 1
503 419 1
503 704 1
503 959 1
503 1001 1
503 1310 1
503 1409 1
503 1636 1
503 1796 1
503 2096 1
503 2291 1
504 8 1
504 291 1
504 420 1
504 705 1
504 960 1
504 1066 1
504 1311 1
504 1474 1
504 1637 1
504 1797 1
504 2097 1
504 2292 1
505 9 1
505 292 1
505 421 1
505 706 1
505 769 1
505 1131 1
505 1312 1
505 1347 1
505 1638 1
505 1798 1
505 2098 1
505 2293 1
506 10 1
506 293 1
506 422 1
506 707 1
506 770 1
506 1004 1
506 1313 1
506 1412 1
506 1639 1
506 1799 1
506 2099 1
506 2294 1
507 11 1
507 294 1
507 423 1
507 708 1
507 771 1
507 1069 1
507 1314 1
507 1477 1
507 1640 1
507 1800 1
507 2100 1
507 2295 1
508 12 1
508 295 1
508 424 1
508 709 1
508 772 1
508 1134 1
508 1315 1
508 1350 1
508 1641 1
508 1801 1
508 2101 1
508 2296 1
509 13 1
509 296 1
509 425 1
509 710 1
509 773 1
509 1007 1
509 1316 1
509 1415 1
509 1642 1
509 1802 1
509 2102 1
509 2297 1
510 14 1
510 297 1
510 426 1
510 711 1
510 774 1
510 1072 1
510 1317 1
510 1480 1
510 1643 1
510 1803 1
510 2103 1
510 2298 1
511 15 1
511 298 1
511 427 1
511 712 1
511 775 1
511 1137 1
511 1318 1
511 1353 1
511 1644 1
511 1804 1
511 2104 1
511 2299 1
512 16 1
512 299 1
512 428 1
512 713 1
512 776 1
512 1010 1
512 1319 1
512 1418 1
512 1645 1
512 1805 1
512 2105 1
512 2300 1
513 17 1
513 300 1
513 429 1
513 714 1
513 777 1
513 1075 1
513 1320 1
513 1483 1
513 1646 1
513 1806 1
513 2106 1
513 2301 1
514 18 1
514 301 1
514 430 1
514 715 1
514 778 1
514 1140 1
514 1321 1
514 1356 1
514 1647 1
514 1807 1
514 2107 1
514 2302 1
515 19 1
515 302 1
515 431 1
515 716 1
515 779 1
515 1013 1
515 1322 1
515 1421 1
515 1648 1
515 1808 1
515 2108 1
515 2303 1
516 20 1
516 303 1
516 432 1
516 717 1
516 780 1
516 1078 1
516 1323 1
516 1486 1
516 1649 1
516 1809 1
516 2109 1
516 2304 1
517 21 1
517 304 1
517 433 1
517 718 1
517 781 1
517 1143 1
517 1324 1
517 1359 1
517 1650 1
517 1810 1
517 2110 1
517 2113 1
518 22 1
518 305 1
518 434 1
518 719 1
518 782 1
518 1016 1
518 1325 1
518 1424 1
518 1651 1
518 1811 1
518 2111 1
518 2114 1
519 23 1
519 306 1
519 435 1
519 720 1
519 783 1
519 1081 1
519 1326 1
519 1489 1
519 1652 1
519 1812 1
519 2112 1
519 2115 1
520 24 1
520 307 1
520 436 1
520 721 1
520 784 1
520 1146 1
520 1327 1
520 1362 1
520 1653 1
520 1813 1
520 1921 1
520 2116 1
521 25 1
521 308 1
521 437 1
521 722 1
521 785 1
521 1019 1
521 1328 1
521 1427 1
521 1654 1
521 1814 1
521 1922 1
521 2117 1
522 26 1
522 309 1
522 438 1
522 723 1
522 786 1
522 1084 1
522 1329 1
522 1492 1
522 1655 1
522 1815 1
522 1923 1
522 2118 1
523 27 1
523 310 1
523 439 1
523 724 1
523 787 1
523 1149 1
523 1330 1
523 1365 1
523 1656 1
523 1816 1
523 1924 1
523 2119 1
524 28 1
524 311 1
524 440 1
524 725 1
524 788 1
524 1022 1
524 1331 1
524 1430 1
524 1657 1
524 1817 1
524 1925 1
524 2120 1
525 29 1
525 312 1
525 441 1
525 726 1
525 789 1
525 1087 1
525 1332 1
525 1495 1
525 1658 1
525 1818 1
525 1926 1
525 2121 1
526 30 1
526 313 1
526 442 1
526 727 1
526 790 1
526 1152 1
526 1333 1
526 1368 1
526 1659 1
526 1819 1
526 1927 1
526 2122 1
527 31 1
527 314 1
527 443 1
527 728 1
527 791 1
527 1025 1
527 1334 1
527 1433 1
527 1660 1
527 1820 1
527 1928 1
527 2123 1
528 32 1
528 315 1
528 444 1
528 729 1
528 792 1
528 1090 1
528 1335 1
528 1498 1
528 1661 1
528 1821 1
528 1929 1
528 2124 1
529 33 1
529 316 1
529 445 1
529 730 1
529 793 1
529 963 1
529 1336 1
529 1371 1
529 1662 1
529 1822 1
529 1930 1
529 2125 1
530 34 1
530 317 1
530 446 1
530 731 1
530 794 1
530 1028 1
530 1337 1
530 1436 1
530 1663 1
530 1823 1
530 1931 1
530 2126 1
531 35 1
531 318 1
531 447 1
531 732 1
531 795 1
531 1093 1
531 1338 1
531 1501 1
531 1664 1
531 1824 1
531 1932 1
531 2127 1
532 36 1
532 319 1
532 448 1
532 733 1
532 796 1
532 966 1
532 1339 1
532 1374 1
532 1665 1
532 1825 1
532 1933 1
532 2128 1
533 37 1
533 320 1
533 449 1
533 734 1
533 797 1
533 1031 1
533 1340 1
533 1439 1
533 1666 1
533 1826 1
533 1934 1
533 2129 1
534 38 1
534 321 1
534 450 1
534 735 1
534 798 1
534 1096 1
534 1341 1
534 1504 1
534 1667 1
534 1827 1
534 1935 1
534 2130 1
535 39 1
535 322 1
535 451 1
535 736 1
535 799 1
535 969 1
535 1342 1
535 1377 1
535 1668 1
535 1828 1
535 1936 1
535 2131 1
536 40 1
536 323 1
536 452 1
536 737 1
536 800 1
536 1034 1
536 1343 1
536 1442 1
536 1669 1
536 1829 1
536 1937 1
536 2132 1
537 41 1
537 324 1
537 453 1
537 738 1
537 801 1
537 1099 1
537 1344 1
537 1507 1
537 1670 1
537 1830 1
537 1938 1
537 2133 1
538 42 1
538 325 1
538 454 1
538 739 1
538 802 1
538 972 1
538 1153 1
538 1380 1
538 1671 1
538 1831 1
538 1939 1
538 2134 1
539 43 1
539 326 1
539 455 1
539 740 1
539 803 1
539 1037 1
539 1154 1
539 1445 1
539 1672 1
539 1832 1
539 1940 1
539 2135 1
540 44 1
540 327 1
540 456 1
540 741 1
540 804 1
540 1102 1
540 1155 1
540 1510 1
540 1673 1
540 1833 1
540 1941 1
540 2136 1
541 45 1
541 328 1
541 457 1
541 742 1
541 805 1
541 975 1
541 1156 1
541 1383 1
541 1674 1
541 1834 1
541 1942 1
541 2137 1
542 46 1
542 329 1
542 458 1
542 743 1
542 806 1
542 1040 1
542 1157 1
542 1448 1
542 1675 1
542 1835 1
542 1943 1
542 2138 1
543 47 1
543 330 1
543 459 1
543 744 1
543 807 1
543 1105 1
543 1158 1
543 1513 1
543 1676 1
543 1836 1
543 1944 1
543 2139 1
544 48 1
544 331 1
544 460 1
544 745 1
544 808 1
544 978 1
544 1159 1
544 1386 1
544 1677 1
544 1837 1
544 1945 1
544 2140 1
545 49 1
545 332 1
545 461 1
545 746 1
545 809 1
545 1043 1
545 1160 1
545 1451 1
545 1678 1
545 1838 1
545 1946 1
545 2141 1
546 50 1
546 333 1
546 462 1
546 747 1
546 810 1
546 1108 1
546 1161 1
546 1516 1
546 1679 1
546 1839 1
546 1947 1
546 2142 1
547 51 1
547 334 1
547 463 1
547 748 1
547 811 1
547 981 1
547 1162 1
547 1389 1
547 1680 1
547 1840 1
547 1948 1
547 2143 1
548 52 1
548 335 1
548 464 1
548 749 1
548 812 1
548 1046 1
548 1163 1
548 1454 1
548 1681 1
548 1841 1
548 1949 1
548 2144 1
549 53 1
549 336 1
549 465 1
549 750 1
549 813 1
549 1111 1
549 1164 1
549 1519 1
549 1682 1
549 1842 1
549 1950 1
549 2145 1
550 54 1
550 337 1
550 466 1
550 751 1
550 814 1
550 984 1
550 1165 1
550 1392 1
550 1683 1
550 1843 1
550 1951 1
550 2146 1
551 55 1
551 338 1
551 467 1
551 752 1
551 815 1
551 1049 1
551 1166 1
551 1457 1
551 1684 1
551 1844 1
551 1952 1
551 2147 1
552 56 1
552 339 1
552 468 1
552 753 1
552 816 1
552 1114 1
552 1167 1
552 1522 1
552 1685 1
552 1845 1
552 1953 1
552 2148 1
553 57 1
553 340 1
553 469 1
553 754 1
553 817 1
553 987 1
553 1168 1
553 1395 1
553 1686 1
553 1846 1
553 1954 1
553 2149 1
554 58 1
554 341 1
554 470 1
554 755 1
554 818 1
554 1052 1
554 1169 1
554 1460 1
554 1687 1
554 1847 1
554 1955 1
554 2150 1
555 59 1
555 342 1
555 471 1
555 756 1
555 819 1
555 1117 1
555 1170 1
555 1525 1
555 1688 1
555 1848 1
555 1956 1
555 2151 1
556 60 1
556 343 1
556 472 1
556 757 1
556 820 1
556 990 1
556 1171 1
556 1398 1
556 1689 1
556 1849 1
556 1957 1
556 2152 1
557 61 1
557 344 1
557 473 1
557 758 1
557 821 1
557 1055 1
557 1172 1
557 1463 1
557 1690 1
557 1850 1
557 1958 1
557 2153 1
558 62 1
558 345 1
558 474 1
558 759 1
558 822 1
558 1120 1
558 1173 1
558 1528 1
558 1691 1
558 1851 1
558 1959 1
558 2154 1
559 63 1
559 346 1
559 475 1
559 760 1
559 823 1
559 993 1
559 1174 1
559 1401 1
559 1692 1
559 1852 1
559 1960 1
559 2155 1
560 64 1
560 347 1
560 476 1
560 761 1
560 824 1
560 1058 1
560 1175 1
560 1466 1
560 1693 1
560 1853 1
560 1961 1
560 2156 1
561 65 1
561 348 1
561 477 1
561 762 1
561 825 1
561 1123 1
561 1176 1
561 1531 1
561 1694 1
561 1854 1
561 1962 1
561 2157 1
562 66 1
562 349 1
562 478 1
562 763 1
562 826 1
562 996 1
562 1177 1
562 1404 1
562 1695 1
562 1855 1
562 1963 1
562 2158 1
563 67 1
563 350 1
563 479 1
563 764 1
563 827 1
563 1061 1
563 1178 1
563 1469 1
563 1696 1
563 1856 1
563 1964 1
563 2159 1
564 68 1
564 351 1
564 480 1
564 765 1
564 828 1
564 1126 1
564 1179 1
564 1534 1
564 1697 1
564 1857 1
564 1965 1
564 2160 1
565 69 1
565 352 1
565 481 1
565 766 1
565 829 1
565 999 1
565 1180 1
565 1407 1
565 1698 1
565 1858 1
565 1966 1
565 2161 1
566 70 1
566 353 1
566 482 1
566 767 1
566 830 1
566 1064 1
566 1181 1
566 1472 1
566 1699 1
566 1859 1
566 1967 1
566 2162 1
567 71 1
567 354 1
567 483 1
567 768 1
567 831 1
567 1129 1
567 1182 1
567 1345 1
567 1700 1
567 1860 1
567 1968 1
567 2163 1
568 72 1
568 355 1
568 484 1
568 577 1
568 832 1
568 1002 1
568 1183 1
568 1410 1
568 1701 1
568 1861 1
568 1969 1
568 2164 1
569 73 1
569 356 1
569 485 1
569 578 1
569 833 1
569 1067 1
569 1184 1
569 1475 1
569 1702 1
569 1862 1
569 1970 1
569 2165 1
570 74 1
570 357 1
570 486 1
570 579 1
570 834 1
570 1132 1
570 1185 1
570 1348 1
570 1703 1
570 1863 1
570 1971 1
570 2166 1
571 75 1
571 358 1
571 487 1
571 580 1
571 835 1
571 1005 1
571 1186 1
571 1413 1
571 1704 1
571 1864 1
571 1972 1
571 2167 1
572 76 1
572 359 1
572 488 1
572 581 1
572 836 1
572 1070 1
572 1187 1
572 1478 1
572 1705 1
572 1865 1
572 1973 1
572 2168 1
573 77 1
573 360 1
573 489 1
573 582 1
573 837 1
573 1135 1
573 1188 1
573 1351 1
573 1706 1
573 1866 1
573 1974 1
573 2169 1
574 78 1
574 361 1
574 490 1
574 583 1
574 838 1
574 1008 1
574 1189 1
574 1416 1
574 1707 1
574 1867 1
574 1975 1
574 2170 1
575 79 1
575 362 1
575 491 1
575 584 1
575 839 1
575 1073 1
575 1190 1
575 1481 1
575 1708 1
575 1868 1
575 1976 1
575 2171 1
576 80 1
576 363 1
576 492 1
576 585 1
576 840 1
576 1138 1
576 1191 1
576 1354 1
576 1709 1
576 1869 1
576 1977 1
576 2172 1
