%%MatrixMarket matrix coordinate integer general
%
144 576 1728
1 2 1
1 54 1
1 139 1
1 157 1
1 205 1
1 265 1
1 295 1
1 349 1
1 395 1
1 444 1
1 487 1
1 532 1
2 3 1
2 71 1
2 140 1
2 158 1
2 206 1
2 266 1
2 296 1
2 350 1
2 396 1
2 461 1
2 488 1
2 533 1
3 4 1
3 88 1
3 141 1
3 159 1
3 207 1
3 267 1
3 297 1
3 351 1
3 397 1
3 478 1
3 489 1
3 534 1
4 5 1
4 57 1
4 142 1
4 160 1
4 208 1
4 268 1
4 298 1
4 352 1
4 398 1
4 447 1
4 490 1
4 535 1
5 6 1
5 74 1
5 143 1
5 161 1
5 209 1
5 269 1
5 299 1
5 353 1
5 399 1
5 464 1
5 491 1
5 536 1
6 7 1
6 91 1
6 144 1
6 162 1
6 210 1
6 270 1
6 300 1
6 354 1
6 400 1
6 433 1
6 492 1
6 537 1
7 8 1
7 60 1
7 97 1
7 163 1
7 211 1
7 271 1
7 301 1
7 355 1
7 401 1
7 450 1
7 493 1
7 538 1
8 9 1
8 77 1
8 98 1
8 164 1
8 212 1
8 272 1
8 302 1
8 356 1
8 402 1
8 467 1
8 494 1
8 539 1
9 10 1
9 94 1
9 99 1
9 165 1
9 213 1
9 273 1
9 303 1
9 357 1
9 403 1
9 436 1
9 495 1
9 540 1
10 11 1
10 63 1
10 100 1
10 166 1
10 214 1
10 274 1
10 304 1
10 358 1
10 404 1
10 453 1
10 496 1
10 541 1
11 12 1
11 80 1
11 101 1
11 167 1
11 215 1
11 275 1
11 305 1
11 359 1
11 405 1
11 470 1
11 497 1
11 542 1
12 13 1
12 49 1
12 102 1
12 168 1
12 216 1
12 276 1
12 306 1
12 360 1
12 406 1
12 439 1
12 498 1
12 543 1
13 14 1
13 66 1
13 103 1
13 169 1
13 217 1
13 277 1
13 307 1
13 361 1
13 407 1
13 456 1
13 499 1
13 544 1
14 15 1
14 83 1
14 104 1
14 170 1
14 218 1
14 278 1
14 308 1
14 362 1
14 408 1
14 473 1
14 500 1
14 545 1
15 16 1
15 52 1
15 105 1
15 171 1
15 219 1
15 279 1
15 309 1
15 363 1
15 409 1
15 442 1
15 501 1
15 546 1
16 17 1
16 69 1
16 106 1
16 172 1
16 220 1
16 280 1
16 310 1
16 364 1
16 410 1
16 459 1
16 502 1
16 547 1
17 18 1
17 86 1
17 107 1
17 173 1
17 221 1
17 281 1
17 311 1
17 365 1
17 411 1
17 476 1
17 503 1
17 548 1
18 19 1
18 55 1
18 108 1
18 174 1
18 222 1
18 282 1
18 312 1
18 366 1
18 412 1
18 445 1
18 504 1
18 549 1
19 20 1
19 72 1
19 109 1
19 175 1
19 223 1
19 283 1
19 313 1
19 367 1
19 413 1
19 462 1
19 505 1
19 550 1
20 21 1
20 89 1
20 110 1
20 176 1
20 224 1
20 284 1
20 314 1
20 368 1
20 414 1
20 479 1
20 506 1
20 551 1
21 22 1
21 58 1
21 111 1
21 177 1
21 225 1
21 285 1
21 315 1
21 369 1
21 415 1
21 448 1
21 507 1
21 552 1
22 23 1
22 75 1
22 112 1
22 178 1
22 226 1
22 286 1
22 316 1
22 370 1
22 416 1
22 465 1
22 508 1
22 553 1
23 24 1
23 92 1
23 113 1
23 179 1
23 227 1
23 287 1
23 317 1
23 371 1
23 417 1
23 434 1
23 509 1
23 554 1
24 25 1
24 61 1
24 114 1
24 180 1
24 228 1
24 288 1
24 318 1
24 372 1
24 418 1
24 451 1
24 510 1
24 555 1
25 26 1
25 78 1
25 115 1
25 181 1
25 229 1
25 241 1
25 319 1
25 373 1
25 419 1
25 468 1
25 511 1
25 556 1
26 27 1
26 95 1
26 116 1
26 182 1
26 230 1
26 242 1
26 320 1
26 374 1
26 420 1
26 437 1
26 512 1
26 557 1
27 28 1
27 64 1
27 117 1
27 183 1
27 231 1
27 243 1
27 321 1
27 375 1
27 421 1
27 454 1
27 513 1
27 558 1
28 29 1
28 81 1
28 118 1
28 184 1
28 232 1
28 244 1
28 322 1
28 376 1
28 422 1
28 471 1
28 514 1
28 559 1
29 30 1
29 50 1
29 119 1
29 185 1
29 233 1
29 245 1
29 323 1
29 377 1
29 423 1
29 440 1
29 515 1
29 560 1
30 31 1
30 67 1
30 120 1
30 186 1
30 234 1
30 246 1
30 324 1
30 378 1
30 424 1
30 457 1
30 516 1
30 561 1
31 32 1
31 84 1
31 121 1
31 187 1
31 235 1
31 247 1
31 325 1
31 379 1
31 425 1
31 474 1
31 517 1
31 562 1
32 33 1
32 53 1
32 122 1
32 188 1
32 236 1
32 248 1
32 326 1
32 380 1
32 426 1
32 443 1
32 518 1
32 563 1
33 34 1
33 70 1
33 123 1
33 189 1
33 237 1
33 249 1
33 327 1
33 381 1
33 427 1
33 460 1
33 519 1
33 564 1
34 35 1
34 87 1
34 124 1
34 190 1
34 238 1
34 250 1
34 328 1
34 382 1
34 428 1
34 477 1
34 520 1
34 565 1
35 36 1
35 56 1
35 125 1
35 191 1
35 239 1
35 251 1
35 329 1
35 383 1
35 429 1
35 446 1
35 521 1
35 566 1
36 37 1
36 73 1
36 126 1
36 192 1
36 240 1
36 252 1
36 330 1
36 384 1
36 430 1
36 463 1
36 522 1
36 567 1
37 38 1
37 90 1
37 127 1
37 145 1
37 193 1
37 253 1
37 331 1
37 337 1
37 431 1
37 480 1
37 523 1
37 568 1
38 39 1
38 59 1
38 128 1
38 146 1
38 194 1
38 254 1
38 332 1
38 338 1
38 432 1
38 449 1
38 524 1
38 569 1
39 40 1
39 76 1
39 129 1
39 147 1
39 195 1
39 255 1
39 333 1
39 339 1
39 385 1
39 466 1
39 525 1
39 570 1
40 41 1
40 93 1
40 130 1
40 148 1
40 196 1
40 256 1
40 334 1
40 340 1
40 386 1
40 435 1
40 526 1
40 571 1
41 42 1
41 62 1
41 131 1
41 149 1
41 197 1
41 257 1
41 335 1
41 341 1
41 387 1
41 452 1
41 527 1
41 572 1
42 43 1
42 79 1
42 132 1
42 150 1
42 198 1
42 258 1
42 336 1
42 342 1
42 388 1
42 469 1
42 528 1
42 573 1
43 44 1
43 96 1
43 133 1
43 151 1
43 199 1
43 259 1
43 289 1
43 343 1
43 389 1
43 438 1
43 481 1
43 574 1
44 45 1
44 65 1
44 134 1
44 152 1
44 200 1
44 260 1
44 290 1
44 344 1
44 390 1
44 455 1
44 482 1
44 575 1
45 46 1
45 82 1
45 135 1
45 153 1
45 201 1
45 261 1
45 291 1
45 345 1
45 391 1
45 472 1
45 483 1
45 576 1
46 47 1
46 51 1
46 136 1
46 154 1
46 202 1
46 262 1
46 292 1
46 346 1
46 392 1
46 441 1
46 484 1
46 529 1
47 48 1
47 68 1
47 137 1
47 155 1
47 203 1
47 263 1
47 293 1
47 347 1
47 393 1
47 458 1
47 485 1
47 530 1
48 1 1
48 85 1
48 138 1
48 156 1
48 204 1
48 264 1
48 294 1
48 348 1
48 394 1
48 475 1
48 486 1
48 531 1
49 25 1
49 50 1
49 102 1
49 187 1
49 205 1
49 253 1
49 292 1
49 343 1
49 397 1
49 443 1
49 492 1
49 535 1
50 26 1
50 51 1
50 119 1
50 188 1
50 206 1
50 254 1
50 293 1
50 344 1
50 398 1
50 444 1
50 509 1
50 536 1
51 27 1
51 52 1
51 136 1
51 189 1
51 207 1
51 255 1
51 294 1
51 345 1
51 399 1
51 445 1
51 526 1
51 537 1
52 28 1
52 53 1
52 105 1
52 190 1
52 208 1
52 256 1
52 295 1
52 346 1
52 400 1
52 446 1
52 495 1
52 538 1
53 29 1
53 54 1
53 122 1
53 191 1
53 209 1
53 257 1
53 296 1
53 347 1
53 401 1
53 447 1
53 512 1
53 539 1
54 30 1
54 55 1
54 139 1
54 192 1
54 210 1
54 258 1
54 297 1
54 348 1
54 402 1
54 448 1
54 481 1
54 540 1
55 31 1
55 56 1
55 108 1
55 145 1
55 211 1
55 259 1
55 298 1
55 349 1
55 403 1
55 449 1
55 498 1
55 541 1
56 32 1
56 57 1
56 125 1
56 146 1
56 212 1
56 260 1
56 299 1
56 350 1
56 404 1
56 450 1
56 515 1
56 542 1
57 33 1
57 58 1
57 142 1
57 147 1
57 213 1
57 261 1
57 300 1
57 351 1
57 405 1
57 451 1
57 484 1
57 543 1
58 34 1
58 59 1
58 111 1
58 148 1
58 214 1
58 262 1
58 301 1
58 352 1
58 406 1
58 452 1
58 501 1
58 544 1
59 35 1
59 60 1
59 128 1
59 149 1
59 215 1
59 263 1
59 302 1
59 353 1
59 407 1
59 453 1
59 518 1
59 545 1
60 36 1
60 61 1
60 97 1
60 150 1
60 216 1
60 264 1
60 303 1
60 354 1
60 408 1
60 454 1
60 487 1
60 546 1
61 37 1
61 62 1
61 114 1
61 151 1
61 217 1
61 265 1
61 304 1
61 355 1
61 409 1
61 455 1
61 504 1
61 547 1
62 38 1
62 63 1
62 131 1
62 152 1
62 218 1
62 266 1
62 305 1
62 356 1
62 410 1
62 456 1
62 521 1
62 548 1
63 39 1
63 64 1
63 100 1
63 153 1
63 219 1
63 267 1
63 306 1
63 357 1
63 411 1
63 457 1
63 490 1
63 549 1
64 40 1
64 65 1
64 117 1
64 154 1
64 220 1
64 268 1
64 307 1
64 358 1
64 412 1
64 458 1
64 507 1
64 550 1
65 41 1
65 66 1
65 134 1
65 155 1
65 221 1
65 269 1
65 308 1
65 359 1
65 413 1
65 459 1
65 524 1
65 551 1
66 42 1
66 67 1
66 103 1
66 156 1
66 222 1
66 270 1
66 309 1
66 360 1
66 414 1
66 460 1
66 493 1
66 552 1
67 43 1
67 68 1
67 120 1
67 157 1
67 223 1
67 271 1
67 310 1
67 361 1
67 415 1
67 461 1
67 510 1
67 553 1
68 44 1
68 69 1
68 137 1
68 158 1
68 224 1
68 272 1
68 311 1
68 362 1
68 416 1
68 462 1
68 527 1
68 554 1
69 45 1
69 70 1
69 106 1
69 159 1
69 225 1
69 273 1
69 312 1
69 363 1
69 417 1
69 463 1
69 496 1
69 555 1
70 46 1
70 71 1
70 123 1
70 160 1
70 226 1
70 274 1
70 313 1
70 364 1
70 418 1
70 464 1
70 513 1
70 556 1
71 47 1
71 72 1
71 140 1
71 161 1
71 227 1
71 275 1
71 314 1
71 365 1
71 419 1
71 465 1
71 482 1
71 557 1
72 48 1
72 73 1
72 109 1
72 162 1
72 228 1
72 276 1
72 315 1
72 366 1
72 420 1
72 466 1
72 499 1
72 558 1
73 1 1
73 74 1
73 126 1
73 163 1
73 229 1
73 277 1
73 316 1
73 367 1
73 421 1
73 467 1
73 516 1
73 559 1
74 2 1
74 75 1
74 143 1
74 164 1
74 230 1
74 278 1
74 317 1
74 368 1
74 422 1
74 468 1
74 485 1
74 560 1
75 3 1
75 76 1
75 112 1
75 165 1
75 231 1
75 279 1
75 318 1
75 369 1
75 423 1
75 469 1
75 502 1
75 561 1
76 4 1
76 77 1
76 129 1
76 166 1
76 232 1
76 280 1
76 319 1
76 370 1
76 424 1
76 470 1
76 519 1
76 562 1
77 5 1
77 78 1
77 98 1
77 167 1
77 233 1
77 281 1
77 320 1
77 371 1
77 425 1
77 471 1
77 488 1
77 563 1
78 6 1
78 79 1
78 115 1
78 168 1
78 234 1
78 282 1
78 321 1
78 372 1
78 426 1
78 472 1
78 505 1
78 564 1
79 7 1
79 80 1
79 132 1
79 169 1
79 235 1
79 283 1
79 322 1
79 373 1
79 427 1
79 473 1
79 522 1
79 565 1
80 8 1
80 81 1
80 101 1
80 170 1
80 236 1
80 284 1
80 323 1
80 374 1
80 428 1
80 474 1
80 491 1
80 566 1
81 9 1
81 82 1
81 118 1
81 171 1
81 237 1
81 285 1
81 324 1
81 375 1
81 429 1
81 475 1
81 508 1
81 567 1
82 10 1
82 83 1
82 135 1
82 172 1
82 238 1
82 286 1
82 325 1
82 376 1
82 430 1
82 476 1
82 525 1
82 568 1
83 11 1
83 84 1
83 104 1
83 173 1
83 239 1
83 287 1
83 326 1
83 377 1
83 431 1
83 477 1
83 494 1
83 569 1
84 12 1
84 85 1
84 121 1
84 174 1
84 240 1
84 288 1
84 327 1
84 378 1
84 432 1
84 478 1
84 511 1
84 570 1
85 13 1
85 86 1
85 138 1
85 175 1
85 193 1
85 241 1
85 328 1
85 379 1
85 385 1
85 479 1
85 528 1
85 571 1
86 14 1
86 87 1
86 107 1
86 176 1
86 194 1
86 242 1
86 329 1
86 380 1
86 386 1
86 480 1
86 497 1
86 572 1
87 15 1
87 88 1
87 124 1
87 177 1
87 195 1
87 243 1
87 330 1
87 381 1
87 387 1
87 433 1
87 514 1
87 573 1
88 16 1
88 89 1
88 141 1
88 178 1
88 196 1
88 244 1
88 331 1
88 382 1
88 388 1
88 434 1
88 483 1
88 574 1
89 17 1
89 90 1
89 110 1
89 179 1
89 197 1
89 245 1
89 332 1
89 383 1
89 389 1
89 435 1
89 500 1
89 575 1
90 18 1
90 91 1
90 127 1
90 180 1
90 198 1
90 246 1
90 333 1
90 384 1
90 390 1
90 436 1
90 517 1
90 576 1
91 19 1
91 92 1
91 144 1
91 181 1
91 199 1
91 247 1
91 334 1
91 337 1
91 391 1
91 437 1
91 486 1
91 529 1
92 20 1
92 93 1
92 113 1
92 182 1
92 200 1
92 248 1
92 335 1
92 338 1
92 392 1
92 438 1
92 503 1
92 530 1
93 21 1
93 94 1
93 130 1
93 183 1
93 201 1
93 249 1
93 336 1
93 339 1
93 393 1
93 439 1
93 520 1
93 531 1
94 22 1
94 95 1
94 99 1
94 184 1
94 202 1
94 250 1
94 289 1
94 340 1
94 394 1
94 440 1
94 489 1
94 532 1
95 23 1
95 96 1
95 116 1
95 185 1
95 203 1
95 251 1
95 290 1
95 341 1
95 395 1
95 441 1
95 506 1
95 533 1
96 24 1
96 49 1
96 133 1
96 186 1
96 204 1
96 252 1
96 291 1
96 342 1
96 396 1
96 442 1
96 523 1
96 534 1
97 13 1
97 73 1
97 98 1
97 150 1
97 235 1
97 253 1
97 295 1
97 340 1
97 391 1
97 445 1
97 491 1
97 540 1
98 14 1
98 74 1
98 99 1
98 167 1
98 236 1
98 254 1
98 296 1
98 341 1
98 392 1
98 446 1
98 492 1
98 557 1
99 15 1
99 75 1
99 100 1
99 184 1
99 237 1
99 255 1
99 297 1
99 342 1
99 393 1
99 447 1
99 493 1
99 574 1
100 16 1
100 76 1
100 101 1
100 153 1
100 238 1
100 256 1
100 298 1
100 343 1
100 394 1
100 448 1
100 494 1
100 543 1
101 17 1
101 77 1
101 102 1
101 170 1
101 239 1
101 257 1
101 299 1
101 344 1
101 395 1
101 449 1
101 495 1
101 560 1
102 18 1
102 78 1
102 103 1
102 187 1
102 240 1
102 258 1
102 300 1
102 345 1
102 396 1
102 450 1
102 496 1
102 529 1
103 19 1
103 79 1
103 104 1
103 156 1
103 193 1
103 259 1
103 301 1
103 346 1
103 397 1
103 451 1
103 497 1
103 546 1
104 20 1
104 80 1
104 105 1
104 173 1
104 194 1
104 260 1
104 302 1
104 347 1
104 398 1
104 452 1
104 498 1
104 563 1
105 21 1
105 81 1
105 106 1
105 190 1
105 195 1
105 261 1
105 303 1
105 348 1
105 399 1
105 453 1
105 499 1
105 532 1
106 22 1
106 82 1
106 107 1
106 159 1
106 196 1
106 262 1
106 304 1
106 349 1
106 400 1
106 454 1
106 500 1
106 549 1
107 23 1
107 83 1
107 108 1
107 176 1
107 197 1
107 263 1
107 305 1
107 350 1
107 401 1
107 455 1
107 501 1
107 566 1
108 24 1
108 84 1
108 109 1
108 145 1
108 198 1
108 264 1
108 306 1
108 351 1
108 402 1
108 456 1
108 502 1
108 535 1
109 25 1
109 85 1
109 110 1
109 162 1
109 199 1
109 265 1
109 307 1
109 352 1
109 403 1
109 457 1
109 503 1
109 552 1
110 26 1
110 86 1
110 111 1
110 179 1
110 200 1
110 266 1
110 308 1
110 353 1
110 404 1
110 458 1
110 504 1
110 569 1
111 27 1
111 87 1
111 112 1
111 148 1
111 201 1
111 267 1
111 309 1
111 354 1
111 405 1
111 459 1
111 505 1
111 538 1
112 28 1
112 88 1
112 113 1
112 165 1
112 202 1
112 268 1
112 310 1
112 355 1
112 406 1
112 460 1
112 506 1
112 555 1
113 29 1
113 89 1
113 114 1
113 182 1
113 203 1
113 269 1
113 311 1
113 356 1
113 407 1
113 461 1
113 507 1
113 572 1
114 30 1
114 90 1
114 115 1
114 151 1
114 204 1
114 270 1
114 312 1
114 357 1
114 408 1
114 462 1
114 508 1
114 541 1
115 31 1
115 91 1
115 116 1
115 168 1
115 205 1
115 271 1
115 313 1
115 358 1
115 409 1
115 463 1
115 509 1
115 558 1
116 32 1
116 92 1
116 117 1
116 185 1
116 206 1
116 272 1
116 314 1
116 359 1
116 410 1
116 464 1
116 510 1
116 575 1
117 33 1
117 93 1
117 118 1
117 154 1
117 207 1
117 273 1
117 315 1
117 360 1
117 411 1
117 465 1
117 511 1
117 544 1
118 34 1
118 94 1
118 119 1
118 171 1
118 208 1
118 274 1
118 316 1
118 361 1
118 412 1
118 466 1
118 512 1
118 561 1
119 35 1
119 95 1
119 120 1
119 188 1
119 209 1
119 275 1
119 317 1
119 362 1
119 413 1
119 467 1
119 513 1
119 530 1
120 36 1
120 96 1
120 121 1
120 157 1
120 210 1
120 276 1
120 318 1
120 363 1
120 414 1
120 468 1
120 514 1
120 547 1
121 37 1
121 49 1
121 122 1
121 174 1
121 211 1
121 277 1
121 319 1
121 364 1
121 415 1
121 469 1
121 515 1
121 564 1
122 38 1
122 50 1
122 123 1
122 191 1
122 212 1
122 278 1
122 320 1
122 365 1
122 416 1
122 470 1
122 516 1
122 533 1
123 39 1
123 51 1
123 124 1
123 160 1
123 213 1
123 279 1
123 321 1
123 366 1
123 417 1
123 471 1
123 517 1
123 550 1
124 40 1
124 52 1
124 125 1
124 177 1
124 214 1
124 280 1
124 322 1
124 367 1
124 418 1
124 472 1
124 518 1
124 567 1
125 41 1
125 53 1
125 126 1
125 146 1
125 215 1
125 281 1
125 323 1
125 368 1
125 419 1
125 473 1
125 519 1
125 536 1
126 42 1
126 54 1
126 127 1
126 163 1
126 216 1
126 282 1
126 324 1
126 369 1
126 420 1
126 474 1
126 520 1
126 553 1
127 43 1
127 55 1
127 128 1
127 180 1
127 217 1
127 283 1
127 325 1
127 370 1
127 421 1
127 475 1
127 521 1
127 570 1
128 44 1
128 56 1
128 129 1
128 149 1
128 218 1
128 284 1
128 326 1
128 371 1
128 422 1
128 476 1
128 522 1
128 539 1
129 45 1
129 57 1
129 130 1
129 166 1
129 219 1
129 285 1
129 327 1
129 372 1
129 423 1
129 477 1
129 523 1
129 556 1
130 46 1
130 58 1
130 131 1
130 183 1
130 220 1
130 286 1
130 328 1
130 373 1
130 424 1
130 478 1
130 524 1
130 573 1
131 47 1
131 59 1
131 132 1
131 152 1
131 221 1
131 287 1
131 329 1
131 374 1
131 425 1
131 479 1
131 525 1
131 542 1
132 48 1
132 60 1
132 133 1
132 169 1
132 222 1
132 288 1
132 330 1
132 375 1
132 426 1
132 480 1
132 526 1
132 559 1
133 1 1
133 61 1
133 134 1
133 186 1
133 223 1
133 241 1
133 331 1
133 376 1
133 427 1
133 433 1
133 527 1
133 576 1
134 2 1
134 62 1
134 135 1
134 155 1
134 224 1
134 242 1
134 332 1
134 377 1
134 428 1
134 434 1
134 528 1
134 545 1
135 3 1
135 63 1
135 136 1
135 172 1
135 225 1
135 243 1
135 333 1
135 378 1
135 429 1
135 435 1
135 481 1
135 562 1
136 4 1
136 64 1
136 137 1
136 189 1
136 226 1
136 244 1
136 334 1
136 379 1
136 430 1
136 436 1
136 482 1
136 531 1
137 5 1
137 65 1
137 138 1
137 158 1
137 227 1
137 245 1
137 335 1
137 380 1
137 431 1
137 437 1
137 483 1
137 548 1
138 6 1
138 66 1
138 139 1
138 175 1
138 228 1
138 246 1
138 336 1
138 381 1
138 432 1
138 438 1
138 484 1
138 565 1
139 7 1
139 67 1
139 140 1
139 192 1
139 229 1
139 247 1
139 289 1
139 382 1
139 385 1
139 439 1
139 485 1
139 534 1
140 8 1
140 68 1
140 141 1
140 161 1
140 230 1
140 248 1
140 290 1
140 383 1
140 386 1
140 440 1
140 486 1
140 551 1
141 9 1
141 69 1
141 142 1
141 178 1
141 231 1
141 249 1
141 291 1
141 384 1
141 387 1
141 441 1
141 487 1
141 568 1
142 10 1
142 70 1
142 143 1
142 147 1
142 232 1
142 250 1
142 292 1
142 337 1
142 388 1
142 442 1
142 488 1
142 537 1
143 11 1
143 71 1
143 144 1
143 164 1
143 233 1
143 251 1
143 293 1
143 338 1
143 389 1
143 443 1
143 489 1
143 554 1
144 12 1
144 72 1
144 97 1
144 181 1
144 234 1
144 252 1
144 294 1
144 339 1
144 390 1
144 444 1
144 490 1
144 571 1
