%%MatrixMarket matrix coordinate integer general
%
711 2844 8532
1 86 1
1 366 1
1 688 1
1 730 1
1 1147 1
1 1351 1
1 1447 1
1 1780 1
1 2054 1
1 2187 1
1 2518 1
1 2629 1
2 87 1
2 446 1
2 689 1
2 731 1
2 1148 1
2 1352 1
2 1448 1
2 1781 1
2 2055 1
2 2267 1
2 2519 1
2 2630 1
3 88 1
3 289 1
3 690 1
3 732 1
3 1149 1
3 1353 1
3 1449 1
3 1782 1
3 2056 1
3 2347 1
3 2520 1
3 2631 1
4 89 1
4 369 1
4 691 1
4 733 1
4 1150 1
4 1354 1
4 1450 1
4 1783 1
4 2057 1
4 2190 1
4 2521 1
4 2632 1
5 90 1
5 449 1
5 692 1
5 734 1
5 1151 1
5 1355 1
5 1451 1
5 1784 1
5 2058 1
5 2270 1
5 2522 1
5 2633 1
6 91 1
6 292 1
6 693 1
6 735 1
6 1152 1
6 1356 1
6 1452 1
6 1785 1
6 2059 1
6 2350 1
6 2523 1
6 2634 1
7 92 1
7 372 1
7 694 1
7 736 1
7 1153 1
7 1357 1
7 1453 1
7 1786 1
7 2060 1
7 2193 1
7 2524 1
7 2635 1
8 93 1
8 452 1
8 695 1
8 737 1
8 1154 1
8 1358 1
8 1454 1
8 1787 1
8 2061 1
8 2273 1
8 2525 1
8 2636 1
9 94 1
9 295 1
9 696 1
9 738 1
9 1155 1
9 1359 1
9 1455 1
9 1788 1
9 2062 1
9 2353 1
9 2526 1
9 2637 1
10 95 1
10 375 1
10 697 1
10 739 1
10 1156 1
10 1360 1
10 1456 1
10 1789 1
10 2063 1
10 2196 1
10 2527 1
10 2638 1
11 96 1
11 455 1
11 698 1
11 740 1
11 1157 1
11 1361 1
11 1457 1
11 1790 1
11 2064 1
11 2276 1
11 2528 1
11 2639 1
12 97 1
12 298 1
12 699 1
12 741 1
12 1158 1
12 1362 1
12 1458 1
12 1791 1
12 2065 1
12 2356 1
12 2529 1
12 2640 1
13 98 1
13 378 1
13 700 1
13 742 1
13 1159 1
13 1363 1
13 1459 1
13 1792 1
13 2066 1
13 2199 1
13 2530 1
13 2641 1
14 99 1
14 458 1
14 701 1
14 743 1
14 1160 1
14 1364 1
14 1460 1
14 1793 1
14 2067 1
14 2279 1
14 2531 1
14 2642 1
15 100 1
15 301 1
15 702 1
15 744 1
15 1161 1
15 1365 1
15 1461 1
15 1794 1
15 2068 1
15 2359 1
15 2532 1
15 2643 1
16 101 1
16 381 1
16 703 1
16 745 1
16 1162 1
16 1366 1
16 1462 1
16 1795 1
16 2069 1
16 2202 1
16 2533 1
16 2644 1
17 102 1
17 461 1
17 704 1
17 746 1
17 1163 1
17 1367 1
17 1463 1
17 1796 1
17 2070 1
17 2282 1
17 2534 1
17 2645 1
18 103 1
18 304 1
18 705 1
18 747 1
18 1164 1
18 1368 1
18 1464 1
18 1797 1
18 2071 1
18 2362 1
18 2535 1
18 2646 1
19 104 1
19 384 1
19 706 1
19 748 1
19 1165 1
19 1369 1
19 1465 1
19 1798 1
19 2072 1
19 2205 1
19 2536 1
19 2647 1
20 105 1
20 464 1
20 707 1
20 749 1
20 1166 1
20 1370 1
20 1466 1
20 1799 1
20 2073 1
20 2285 1
20 2537 1
20 2648 1
21 106 1
21 307 1
21 708 1
21 750 1
21 1167 1
21 1371 1
21 1467 1
21 1800 1
21 2074 1
21 2365 1
21 2538 1
21 2649 1
22 107 1
22 387 1
22 709 1
22 751 1
22 1168 1
22 1372 1
22 1468 1
22 1801 1
22 2075 1
22 2208 1
22 2539 1
22 2650 1
23 108 1
23 467 1
23 710 1
23 752 1
23 1169 1
23 1373 1
23 1469 1
23 1802 1
23 2076 1
23 2288 1
23 2540 1
23 2651 1
24 109 1
24 310 1
24 711 1
24 753 1
24 1170 1
24 1374 1
24 1470 1
24 1803 1
24 2077 1
24 2368 1
24 2541 1
24 2652 1
25 110 1
25 390 1
25 475 1
25 754 1
25 1171 1
25 1375 1
25 1471 1
25 1804 1
25 2078 1
25 2211 1
25 2542 1
25 2653 1
26 111 1
26 470 1
26 476 1
26 755 1
26 1172 1
26 1376 1
26 1472 1
26 1805 1
26 2079 1
26 2291 1
26 2543 1
26 2654 1
27 112 1
27 313 1
27 477 1
27 756 1
27 1173 1
27 1377 1
27 1473 1
27 1806 1
27 2080 1
27 2134 1
27 2544 1
27 2655 1
28 113 1
28 393 1
28 478 1
28 757 1
28 1174 1
28 1378 1
28 1474 1
28 1807 1
28 2081 1
28 2214 1
28 2545 1
28 2656 1
29 114 1
29 473 1
29 479 1
29 758 1
29 1175 1
29 1379 1
29 1475 1
29 1808 1
29 2082 1
29 2294 1
29 2546 1
29 2657 1
30 115 1
30 316 1
30 480 1
30 759 1
30 1176 1
30 1380 1
30 1476 1
30 1809 1
30 2083 1
30 2137 1
30 2547 1
30 2658 1
31 116 1
31 396 1
31 481 1
31 760 1
31 1177 1
31 1381 1
31 1477 1
31 1810 1
31 2084 1
31 2217 1
31 2548 1
31 2659 1
32 117 1
32 239 1
32 482 1
32 761 1
32 1178 1
32 1382 1
32 1478 1
32 1811 1
32 2085 1
32 2297 1
32 2549 1
32 2660 1
33 118 1
33 319 1
33 483 1
33 762 1
33 1179 1
33 1383 1
33 1479 1
33 1812 1
33 2086 1
33 2140 1
33 2550 1
33 2661 1
34 119 1
34 399 1
34 484 1
34 763 1
34 1180 1
34 1384 1
34 1480 1
34 1813 1
34 2087 1
34 2220 1
34 2551 1
34 2662 1
35 120 1
35 242 1
35 485 1
35 764 1
35 1181 1
35 1385 1
35 1481 1
35 1814 1
35 2088 1
35 2300 1
35 2552 1
35 2663 1
36 121 1
36 322 1
36 486 1
36 765 1
36 1182 1
36 1386 1
36 1482 1
36 1815 1
36 2089 1
36 2143 1
36 2553 1
36 2664 1
37 122 1
37 402 1
37 487 1
37 766 1
37 1183 1
37 1387 1
37 1483 1
37 1816 1
37 2090 1
37 2223 1
37 2554 1
37 2665 1
38 123 1
38 245 1
38 488 1
38 767 1
38 1184 1
38 1388 1
38 1484 1
38 1817 1
38 2091 1
38 2303 1
38 2555 1
38 2666 1
39 124 1
39 325 1
39 489 1
39 768 1
39 1185 1
39 1389 1
39 1485 1
39 1818 1
39 2092 1
39 2146 1
39 2556 1
39 2667 1
40 125 1
40 405 1
40 490 1
40 769 1
40 949 1
40 1390 1
40 1486 1
40 1819 1
40 2093 1
40 2226 1
40 2557 1
40 2668 1
41 126 1
41 248 1
41 491 1
41 770 1
41 950 1
41 1391 1
41 1487 1
41 1820 1
41 2094 1
41 2306 1
41 2558 1
41 2669 1
42 127 1
42 328 1
42 492 1
42 771 1
42 951 1
42 1392 1
42 1488 1
42 1821 1
42 2095 1
42 2149 1
42 2559 1
42 2670 1
43 128 1
43 408 1
43 493 1
43 772 1
43 952 1
43 1393 1
43 1489 1
43 1822 1
43 2096 1
43 2229 1
43 2560 1
43 2671 1
44 129 1
44 251 1
44 494 1
44 773 1
44 953 1
44 1394 1
44 1490 1
44 1823 1
44 2097 1
44 2309 1
44 2561 1
44 2672 1
45 130 1
45 331 1
45 495 1
45 774 1
45 954 1
45 1395 1
45 1491 1
45 1824 1
45 2098 1
45 2152 1
45 2562 1
45 2673 1
46 131 1
46 411 1
46 496 1
46 775 1
46 955 1
46 1396 1
46 1492 1
46 1825 1
46 2099 1
46 2232 1
46 2563 1
46 2674 1
47 132 1
47 254 1
47 497 1
47 776 1
47 956 1
47 1397 1
47 1493 1
47 1826 1
47 2100 1
47 2312 1
47 2564 1
47 2675 1
48 133 1
48 334 1
48 498 1
48 777 1
48 957 1
48 1398 1
48 1494 1
48 1827 1
48 2101 1
48 2155 1
48 2565 1
48 2676 1
49 134 1
49 414 1
49 499 1
49 778 1
49 958 1
49 1399 1
49 1495 1
49 1828 1
49 2102 1
49 2235 1
49 2566 1
49 2677 1
50 135 1
50 257 1
50 500 1
50 779 1
50 959 1
50 1400 1
50 1496 1
50 1829 1
50 2103 1
50 2315 1
50 2567 1
50 2678 1
51 136 1
51 337 1
51 501 1
51 780 1
51 960 1
51 1401 1
51 1497 1
51 1830 1
51 2104 1
51 2158 1
51 2568 1
51 2679 1
52 137 1
52 417 1
52 502 1
52 781 1
52 961 1
52 1402 1
52 1498 1
52 1831 1
52 2105 1
52 2238 1
52 2569 1
52 2680 1
53 138 1
53 260 1
53 503 1
53 782 1
53 962 1
53 1403 1
53 1499 1
53 1832 1
53 2106 1
53 2318 1
53 2570 1
53 2681 1
54 139 1
54 340 1
54 504 1
54 783 1
54 963 1
54 1404 1
54 1500 1
54 1833 1
54 2107 1
54 2161 1
54 2571 1
54 2682 1
55 140 1
55 420 1
55 505 1
55 784 1
55 964 1
55 1405 1
55 1501 1
55 1834 1
55 2108 1
55 2241 1
55 2572 1
55 2683 1
56 141 1
56 263 1
56 506 1
56 785 1
56 965 1
56 1406 1
56 1502 1
56 1835 1
56 2109 1
56 2321 1
56 2573 1
56 2684 1
57 142 1
57 343 1
57 507 1
57 786 1
57 966 1
57 1407 1
57 1503 1
57 1836 1
57 2110 1
57 2164 1
57 2574 1
57 2685 1
58 143 1
58 423 1
58 508 1
58 787 1
58 967 1
58 1408 1
58 1504 1
58 1837 1
58 2111 1
58 2244 1
58 2575 1
58 2686 1
59 144 1
59 266 1
59 509 1
59 788 1
59 968 1
59 1409 1
59 1505 1
59 1838 1
59 2112 1
59 2324 1
59 2576 1
59 2687 1
60 145 1
60 346 1
60 510 1
60 789 1
60 969 1
60 1410 1
60 1506 1
60 1839 1
60 2113 1
60 2167 1
60 2577 1
60 2688 1
61 146 1
61 426 1
61 511 1
61 790 1
61 970 1
61 1411 1
61 1507 1
61 1840 1
61 2114 1
61 2247 1
61 2578 1
61 2689 1
62 147 1
62 269 1
62 512 1
62 791 1
62 971 1
62 1412 1
62 1508 1
62 1841 1
62 2115 1
62 2327 1
62 2579 1
62 2690 1
63 148 1
63 349 1
63 513 1
63 792 1
63 972 1
63 1413 1
63 1509 1
63 1842 1
63 2116 1
63 2170 1
63 2580 1
63 2691 1
64 149 1
64 429 1
64 514 1
64 793 1
64 973 1
64 1414 1
64 1510 1
64 1843 1
64 2117 1
64 2250 1
64 2581 1
64 2692 1
65 150 1
65 272 1
65 515 1
65 794 1
65 974 1
65 1415 1
65 1511 1
65 1844 1
65 2118 1
65 2330 1
65 2582 1
65 2693 1
66 151 1
66 352 1
66 516 1
66 795 1
66 975 1
66 1416 1
66 1512 1
66 1845 1
66 2119 1
66 2173 1
66 2583 1
66 2694 1
67 152 1
67 432 1
67 517 1
67 796 1
67 976 1
67 1417 1
67 1513 1
67 1846 1
67 2120 1
67 2253 1
67 2584 1
67 2695 1
68 153 1
68 275 1
68 518 1
68 797 1
68 977 1
68 1418 1
68 1514 1
68 1847 1
68 2121 1
68 2333 1
68 2585 1
68 2696 1
69 154 1
69 355 1
69 519 1
69 798 1
69 978 1
69 1419 1
69 1515 1
69 1848 1
69 2122 1
69 2176 1
69 2586 1
69 2697 1
70 155 1
70 435 1
70 520 1
70 799 1
70 979 1
70 1420 1
70 1516 1
70 1849 1
70 2123 1
70 2256 1
70 2587 1
70 2698 1
71 156 1
71 278 1
71 521 1
71 800 1
71 980 1
71 1421 1
71 1517 1
71 1850 1
71 2124 1
71 2336 1
71 2588 1
71 2699 1
72 157 1
72 358 1
72 522 1
72 801 1
72 981 1
72 1422 1
72 1518 1
72 1851 1
72 2125 1
72 2179 1
72 2589 1
72 2700 1
73 158 1
73 438 1
73 523 1
73 802 1
73 982 1
73 1186 1
73 1519 1
73 1852 1
73 2126 1
73 2259 1
73 2590 1
73 2701 1
74 159 1
74 281 1
74 524 1
74 803 1
74 983 1
74 1187 1
74 1520 1
74 1853 1
74 2127 1
74 2339 1
74 2591 1
74 2702 1
75 160 1
75 361 1
75 525 1
75 804 1
75 984 1
75 1188 1
75 1521 1
75 1854 1
75 2128 1
75 2182 1
75 2592 1
75 2703 1
76 161 1
76 441 1
76 526 1
76 805 1
76 985 1
76 1189 1
76 1522 1
76 1855 1
76 2129 1
76 2262 1
76 2593 1
76 2704 1
77 162 1
77 284 1
77 527 1
77 806 1
77 986 1
77 1190 1
77 1523 1
77 1856 1
77 2130 1
77 2342 1
77 2594 1
77 2705 1
78 163 1
78 364 1
78 528 1
78 807 1
78 987 1
78 1191 1
78 1524 1
78 1857 1
78 2131 1
78 2185 1
78 2595 1
78 2706 1
79 164 1
79 444 1
79 529 1
79 808 1
79 988 1
79 1192 1
79 1525 1
79 1858 1
79 2132 1
79 2265 1
79 2596 1
79 2707 1
80 165 1
80 287 1
80 530 1
80 809 1
80 989 1
80 1193 1
80 1526 1
80 1859 1
80 2133 1
80 2345 1
80 2597 1
80 2708 1
81 166 1
81 367 1
81 531 1
81 810 1
81 990 1
81 1194 1
81 1527 1
81 1860 1
81 1897 1
81 2188 1
81 2598 1
81 2709 1
82 167 1
82 447 1
82 532 1
82 811 1
82 991 1
82 1195 1
82 1528 1
82 1861 1
82 1898 1
82 2268 1
82 2599 1
82 2710 1
83 168 1
83 290 1
83 533 1
83 812 1
83 992 1
83 1196 1
83 1529 1
83 1862 1
83 1899 1
83 2348 1
83 2600 1
83 2711 1
84 169 1
84 370 1
84 534 1
84 813 1
84 993 1
84 1197 1
84 1530 1
84 1863 1
84 1900 1
84 2191 1
84 2601 1
84 2712 1
85 170 1
85 450 1
85 535 1
85 814 1
85 994 1
85 1198 1
85 1531 1
85 1864 1
85 1901 1
85 2271 1
85 2602 1
85 2713 1
86 171 1
86 293 1
86 536 1
86 815 1
86 995 1
86 1199 1
86 1532 1
86 1865 1
86 1902 1
86 2351 1
86 2603 1
86 2714 1
87 172 1
87 373 1
87 537 1
87 816 1
87 996 1
87 1200 1
87 1533 1
87 1866 1
87 1903 1
87 2194 1
87 2604 1
87 2715 1
88 173 1
88 453 1
88 538 1
88 817 1
88 997 1
88 1201 1
88 1534 1
88 1867 1
88 1904 1
88 2274 1
88 2605 1
88 2716 1
89 174 1
89 296 1
89 539 1
89 818 1
89 998 1
89 1202 1
89 1535 1
89 1868 1
89 1905 1
89 2354 1
89 2606 1
89 2717 1
90 175 1
90 376 1
90 540 1
90 819 1
90 999 1
90 1203 1
90 1536 1
90 1869 1
90 1906 1
90 2197 1
90 2607 1
90 2718 1
91 176 1
91 456 1
91 541 1
91 820 1
91 1000 1
91 1204 1
91 1537 1
91 1870 1
91 1907 1
91 2277 1
91 2371 1
91 2719 1
92 177 1
92 299 1
92 542 1
92 821 1
92 1001 1
92 1205 1
92 1538 1
92 1871 1
92 1908 1
92 2357 1
92 2372 1
92 2720 1
93 178 1
93 379 1
93 543 1
93 822 1
93 1002 1
93 1206 1
93 1539 1
93 1872 1
93 1909 1
93 2200 1
93 2373 1
93 2721 1
94 179 1
94 459 1
94 544 1
94 823 1
94 1003 1
94 1207 1
94 1540 1
94 1873 1
94 1910 1
94 2280 1
94 2374 1
94 2722 1
95 180 1
95 302 1
95 545 1
95 824 1
95 1004 1
95 1208 1
95 1541 1
95 1874 1
95 1911 1
95 2360 1
95 2375 1
95 2723 1
96 181 1
96 382 1
96 546 1
96 825 1
96 1005 1
96 1209 1
96 1542 1
96 1875 1
96 1912 1
96 2203 1
96 2376 1
96 2724 1
97 182 1
97 462 1
97 547 1
97 826 1
97 1006 1
97 1210 1
97 1543 1
97 1876 1
97 1913 1
97 2283 1
97 2377 1
97 2725 1
98 183 1
98 305 1
98 548 1
98 827 1
98 1007 1
98 1211 1
98 1544 1
98 1877 1
98 1914 1
98 2363 1
98 2378 1
98 2726 1
99 184 1
99 385 1
99 549 1
99 828 1
99 1008 1
99 1212 1
99 1545 1
99 1878 1
99 1915 1
99 2206 1
99 2379 1
99 2727 1
100 185 1
100 465 1
100 550 1
100 829 1
100 1009 1
100 1213 1
100 1546 1
100 1879 1
100 1916 1
100 2286 1
100 2380 1
100 2728 1
101 186 1
101 308 1
101 551 1
101 830 1
101 1010 1
101 1214 1
101 1547 1
101 1880 1
101 1917 1
101 2366 1
101 2381 1
101 2729 1
102 187 1
102 388 1
102 552 1
102 831 1
102 1011 1
102 1215 1
102 1548 1
102 1881 1
102 1918 1
102 2209 1
102 2382 1
102 2730 1
103 188 1
103 468 1
103 553 1
103 832 1
103 1012 1
103 1216 1
103 1549 1
103 1882 1
103 1919 1
103 2289 1
103 2383 1
103 2731 1
104 189 1
104 311 1
104 554 1
104 833 1
104 1013 1
104 1217 1
104 1550 1
104 1883 1
104 1920 1
104 2369 1
104 2384 1
104 2732 1
105 190 1
105 391 1
105 555 1
105 834 1
105 1014 1
105 1218 1
105 1551 1
105 1884 1
105 1921 1
105 2212 1
105 2385 1
105 2733 1
106 191 1
106 471 1
106 556 1
106 835 1
106 1015 1
106 1219 1
106 1552 1
106 1885 1
106 1922 1
106 2292 1
106 2386 1
106 2734 1
107 192 1
107 314 1
107 557 1
107 836 1
107 1016 1
107 1220 1
107 1553 1
107 1886 1
107 1923 1
107 2135 1
107 2387 1
107 2735 1
108 193 1
108 394 1
108 558 1
108 837 1
108 1017 1
108 1221 1
108 1554 1
108 1887 1
108 1924 1
108 2215 1
108 2388 1
108 2736 1
109 194 1
109 474 1
109 559 1
109 838 1
109 1018 1
109 1222 1
109 1555 1
109 1888 1
109 1925 1
109 2295 1
109 2389 1
109 2737 1
110 195 1
110 317 1
110 560 1
110 839 1
110 1019 1
110 1223 1
110 1556 1
110 1889 1
110 1926 1
110 2138 1
110 2390 1
110 2738 1
111 196 1
111 397 1
111 561 1
111 840 1
111 1020 1
111 1224 1
111 1557 1
111 1890 1
111 1927 1
111 2218 1
111 2391 1
111 2739 1
112 197 1
112 240 1
112 562 1
112 841 1
112 1021 1
112 1225 1
112 1558 1
112 1891 1
112 1928 1
112 2298 1
112 2392 1
112 2740 1
113 198 1
113 320 1
113 563 1
113 842 1
113 1022 1
113 1226 1
113 1559 1
113 1892 1
113 1929 1
113 2141 1
113 2393 1
113 2741 1
114 199 1
114 400 1
114 564 1
114 843 1
114 1023 1
114 1227 1
114 1560 1
114 1893 1
114 1930 1
114 2221 1
114 2394 1
114 2742 1
115 200 1
115 243 1
115 565 1
115 844 1
115 1024 1
115 1228 1
115 1561 1
115 1894 1
115 1931 1
115 2301 1
115 2395 1
115 2743 1
116 201 1
116 323 1
116 566 1
116 845 1
116 1025 1
116 1229 1
116 1562 1
116 1895 1
116 1932 1
116 2144 1
116 2396 1
116 2744 1
117 202 1
117 403 1
117 567 1
117 846 1
117 1026 1
117 1230 1
117 1563 1
117 1896 1
117 1933 1
117 2224 1
117 2397 1
117 2745 1
118 203 1
118 246 1
118 568 1
118 847 1
118 1027 1
118 1231 1
118 1564 1
118 1660 1
118 1934 1
118 2304 1
118 2398 1
118 2746 1
119 204 1
119 326 1
119 569 1
119 848 1
119 1028 1
119 1232 1
119 1565 1
119 1661 1
119 1935 1
119 2147 1
119 2399 1
119 2747 1
120 205 1
120 406 1
120 570 1
120 849 1
120 1029 1
120 1233 1
120 1566 1
120 1662 1
120 1936 1
120 2227 1
120 2400 1
120 2748 1
121 206 1
121 249 1
121 571 1
121 850 1
121 1030 1
121 1234 1
121 1567 1
121 1663 1
121 1937 1
121 2307 1
121 2401 1
121 2749 1
122 207 1
122 329 1
122 572 1
122 851 1
122 1031 1
122 1235 1
122 1568 1
122 1664 1
122 1938 1
122 2150 1
122 2402 1
122 2750 1
123 208 1
123 409 1
123 573 1
123 852 1
123 1032 1
123 1236 1
123 1569 1
123 1665 1
123 1939 1
123 2230 1
123 2403 1
123 2751 1
124 209 1
124 252 1
124 574 1
124 853 1
124 1033 1
124 1237 1
124 1570 1
124 1666 1
124 1940 1
124 2310 1
124 2404 1
124 2752 1
125 210 1
125 332 1
125 575 1
125 854 1
125 1034 1
125 1238 1
125 1571 1
125 1667 1
125 1941 1
125 2153 1
125 2405 1
125 2753 1
126 211 1
126 412 1
126 576 1
126 855 1
126 1035 1
126 1239 1
126 1572 1
126 1668 1
126 1942 1
126 2233 1
126 2406 1
126 2754 1
127 212 1
127 255 1
127 577 1
127 856 1
127 1036 1
127 1240 1
127 1573 1
127 1669 1
127 1943 1
127 2313 1
127 2407 1
127 2755 1
128 213 1
128 335 1
128 578 1
128 857 1
128 1037 1
128 1241 1
128 1574 1
128 1670 1
128 1944 1
128 2156 1
128 2408 1
128 2756 1
129 214 1
129 415 1
129 579 1
129 858 1
129 1038 1
129 1242 1
129 1575 1
129 1671 1
129 1945 1
129 2236 1
129 2409 1
129 2757 1
130 215 1
130 258 1
130 580 1
130 859 1
130 1039 1
130 1243 1
130 1576 1
130 1672 1
130 1946 1
130 2316 1
130 2410 1
130 2758 1
131 216 1
131 338 1
131 581 1
131 860 1
131 1040 1
131 1244 1
131 1577 1
131 1673 1
131 1947 1
131 2159 1
131 2411 1
131 2759 1
132 217 1
132 418 1
132 582 1
132 861 1
132 1041 1
132 1245 1
132 1578 1
132 1674 1
132 1948 1
132 2239 1
132 2412 1
132 2760 1
133 218 1
133 261 1
133 583 1
133 862 1
133 1042 1
133 1246 1
133 1579 1
133 1675 1
133 1949 1
133 2319 1
133 2413 1
133 2761 1
134 219 1
134 341 1
134 584 1
134 863 1
134 1043 1
134 1247 1
134 1580 1
134 1676 1
134 1950 1
134 2162 1
134 2414 1
134 2762 1
135 220 1
135 421 1
135 585 1
135 864 1
135 1044 1
135 1248 1
135 1581 1
135 1677 1
135 1951 1
135 2242 1
135 2415 1
135 2763 1
136 221 1
136 264 1
136 586 1
136 865 1
136 1045 1
136 1249 1
136 1582 1
136 1678 1
136 1952 1
136 2322 1
136 2416 1
136 2764 1
137 222 1
137 344 1
137 587 1
137 866 1
137 1046 1
137 1250 1
137 1583 1
137 1679 1
137 1953 1
137 2165 1
137 2417 1
137 2765 1
138 223 1
138 424 1
138 588 1
138 867 1
138 1047 1
138 1251 1
138 1584 1
138 1680 1
138 1954 1
138 2245 1
138 2418 1
138 2766 1
139 224 1
139 267 1
139 589 1
139 868 1
139 1048 1
139 1252 1
139 1585 1
139 1681 1
139 1955 1
139 2325 1
139 2419 1
139 2767 1
140 225 1
140 347 1
140 590 1
140 869 1
140 1049 1
140 1253 1
140 1586 1
140 1682 1
140 1956 1
140 2168 1
140 2420 1
140 2768 1
141 226 1
141 427 1
141 591 1
141 870 1
141 1050 1
141 1254 1
141 1587 1
141 1683 1
141 1957 1
141 2248 1
141 2421 1
141 2769 1
142 227 1
142 270 1
142 592 1
142 871 1
142 1051 1
142 1255 1
142 1588 1
142 1684 1
142 1958 1
142 2328 1
142 2422 1
142 2770 1
143 228 1
143 350 1
143 593 1
143 872 1
143 1052 1
143 1256 1
143 1589 1
143 1685 1
143 1959 1
143 2171 1
143 2423 1
143 2771 1
144 229 1
144 430 1
144 594 1
144 873 1
144 1053 1
144 1257 1
144 1590 1
144 1686 1
144 1960 1
144 2251 1
144 2424 1
144 2772 1
145 230 1
145 273 1
145 595 1
145 874 1
145 1054 1
145 1258 1
145 1591 1
145 1687 1
145 1961 1
145 2331 1
145 2425 1
145 2773 1
146 231 1
146 353 1
146 596 1
146 875 1
146 1055 1
146 1259 1
146 1592 1
146 1688 1
146 1962 1
146 2174 1
146 2426 1
146 2774 1
147 232 1
147 433 1
147 597 1
147 876 1
147 1056 1
147 1260 1
147 1593 1
147 1689 1
147 1963 1
147 2254 1
147 2427 1
147 2775 1
148 233 1
148 276 1
148 598 1
148 877 1
148 1057 1
148 1261 1
148 1594 1
148 1690 1
148 1964 1
148 2334 1
148 2428 1
148 2776 1
149 234 1
149 356 1
149 599 1
149 878 1
149 1058 1
149 1262 1
149 1595 1
149 1691 1
149 1965 1
149 2177 1
149 2429 1
149 2777 1
150 235 1
150 436 1
150 600 1
150 879 1
150 1059 1
150 1263 1
150 1596 1
150 1692 1
150 1966 1
150 2257 1
150 2430 1
150 2778 1
151 236 1
151 279 1
151 601 1
151 880 1
151 1060 1
151 1264 1
151 1597 1
151 1693 1
151 1967 1
151 2337 1
151 2431 1
151 2779 1
152 237 1
152 359 1
152 602 1
152 881 1
152 1061 1
152 1265 1
152 1598 1
152 1694 1
152 1968 1
152 2180 1
152 2432 1
152 2780 1
153 1 1
153 439 1
153 603 1
153 882 1
153 1062 1
153 1266 1
153 1599 1
153 1695 1
153 1969 1
153 2260 1
153 2433 1
153 2781 1
154 2 1
154 282 1
154 604 1
154 883 1
154 1063 1
154 1267 1
154 1600 1
154 1696 1
154 1970 1
154 2340 1
154 2434 1
154 2782 1
155 3 1
155 362 1
155 605 1
155 884 1
155 1064 1
155 1268 1
155 1601 1
155 1697 1
155 1971 1
155 2183 1
155 2435 1
155 2783 1
156 4 1
156 442 1
156 606 1
156 885 1
156 1065 1
156 1269 1
156 1602 1
156 1698 1
156 1972 1
156 2263 1
156 2436 1
156 2784 1
157 5 1
157 285 1
157 607 1
157 886 1
157 1066 1
157 1270 1
157 1603 1
157 1699 1
157 1973 1
157 2343 1
157 2437 1
157 2785 1
158 6 1
158 365 1
158 608 1
158 887 1
158 1067 1
158 1271 1
158 1604 1
158 1700 1
158 1974 1
158 2186 1
158 2438 1
158 2786 1
159 7 1
159 445 1
159 609 1
159 888 1
159 1068 1
159 1272 1
159 1605 1
159 1701 1
159 1975 1
159 2266 1
159 2439 1
159 2787 1
160 8 1
160 288 1
160 610 1
160 889 1
160 1069 1
160 1273 1
160 1606 1
160 1702 1
160 1976 1
160 2346 1
160 2440 1
160 2788 1
161 9 1
161 368 1
161 611 1
161 890 1
161 1070 1
161 1274 1
161 1607 1
161 1703 1
161 1977 1
161 2189 1
161 2441 1
161 2789 1
162 10 1
162 448 1
162 612 1
162 891 1
162 1071 1
162 1275 1
162 1608 1
162 1704 1
162 1978 1
162 2269 1
162 2442 1
162 2790 1
163 11 1
163 291 1
163 613 1
163 892 1
163 1072 1
163 1276 1
163 1609 1
163 1705 1
163 1979 1
163 2349 1
163 2443 1
163 2791 1
164 12 1
164 371 1
164 614 1
164 893 1
164 1073 1
164 1277 1
164 1610 1
164 1706 1
164 1980 1
164 2192 1
164 2444 1
164 2792 1
165 13 1
165 451 1
165 615 1
165 894 1
165 1074 1
165 1278 1
165 1611 1
165 1707 1
165 1981 1
165 2272 1
165 2445 1
165 2793 1
166 14 1
166 294 1
166 616 1
166 895 1
166 1075 1
166 1279 1
166 1612 1
166 1708 1
166 1982 1
166 2352 1
166 2446 1
166 2794 1
167 15 1
167 374 1
167 617 1
167 896 1
167 1076 1
167 1280 1
167 1613 1
167 1709 1
167 1983 1
167 2195 1
167 2447 1
167 2795 1
168 16 1
168 454 1
168 618 1
168 897 1
168 1077 1
168 1281 1
168 1614 1
168 1710 1
168 1984 1
168 2275 1
168 2448 1
168 2796 1
169 17 1
169 297 1
169 619 1
169 898 1
169 1078 1
169 1282 1
169 1615 1
169 1711 1
169 1985 1
169 2355 1
169 2449 1
169 2797 1
170 18 1
170 377 1
170 620 1
170 899 1
170 1079 1
170 1283 1
170 1616 1
170 1712 1
170 1986 1
170 2198 1
170 2450 1
170 2798 1
171 19 1
171 457 1
171 621 1
171 900 1
171 1080 1
171 1284 1
171 1617 1
171 1713 1
171 1987 1
171 2278 1
171 2451 1
171 2799 1
172 20 1
172 300 1
172 622 1
172 901 1
172 1081 1
172 1285 1
172 1618 1
172 1714 1
172 1988 1
172 2358 1
172 2452 1
172 2800 1
173 21 1
173 380 1
173 623 1
173 902 1
173 1082 1
173 1286 1
173 1619 1
173 1715 1
173 1989 1
173 2201 1
173 2453 1
173 2801 1
174 22 1
174 460 1
174 624 1
174 903 1
174 1083 1
174 1287 1
174 1620 1
174 1716 1
174 1990 1
174 2281 1
174 2454 1
174 2802 1
175 23 1
175 303 1
175 625 1
175 904 1
175 1084 1
175 1288 1
175 1621 1
175 1717 1
175 1991 1
175 2361 1
175 2455 1
175 2803 1
176 24 1
176 383 1
176 626 1
176 905 1
176 1085 1
176 1289 1
176 1622 1
176 1718 1
176 1992 1
176 2204 1
176 2456 1
176 2804 1
177 25 1
177 463 1
177 627 1
177 906 1
177 1086 1
177 1290 1
177 1623 1
177 1719 1
177 1993 1
177 2284 1
177 2457 1
177 2805 1
178 26 1
178 306 1
178 628 1
178 907 1
178 1087 1
178 1291 1
178 1624 1
178 1720 1
178 1994 1
178 2364 1
178 2458 1
178 2806 1
179 27 1
179 386 1
179 629 1
179 908 1
179 1088 1
179 1292 1
179 1625 1
179 1721 1
179 1995 1
179 2207 1
179 2459 1
179 2807 1
180 28 1
180 466 1
180 630 1
180 909 1
180 1089 1
180 1293 1
180 1626 1
180 1722 1
180 1996 1
180 2287 1
180 2460 1
180 2808 1
181 29 1
181 309 1
181 631 1
181 910 1
181 1090 1
181 1294 1
181 1627 1
181 1723 1
181 1997 1
181 2367 1
181 2461 1
181 2809 1
182 30 1
182 389 1
182 632 1
182 911 1
182 1091 1
182 1295 1
182 1628 1
182 1724 1
182 1998 1
182 2210 1
182 2462 1
182 2810 1
183 31 1
183 469 1
183 633 1
183 912 1
183 1092 1
183 1296 1
183 1629 1
183 1725 1
183 1999 1
183 2290 1
183 2463 1
183 2811 1
184 32 1
184 312 1
184 634 1
184 913 1
184 1093 1
184 1297 1
184 1630 1
184 1726 1
184 2000 1
184 2370 1
184 2464 1
184 2812 1
185 33 1
185 392 1
185 635 1
185 914 1
185 1094 1
185 1298 1
185 1631 1
185 1727 1
185 2001 1
185 2213 1
185 2465 1
185 2813 1
186 34 1
186 472 1
186 636 1
186 915 1
186 1095 1
186 1299 1
186 1632 1
186 1728 1
186 2002 1
186 2293 1
186 2466 1
186 2814 1
187 35 1
187 315 1
187 637 1
187 916 1
187 1096 1
187 1300 1
187 1633 1
187 1729 1
187 2003 1
187 2136 1
187 2467 1
187 2815 1
188 36 1
188 395 1
188 638 1
188 917 1
188 1097 1
188 1301 1
188 1634 1
188 1730 1
188 2004 1
188 2216 1
188 2468 1
188 2816 1
189 37 1
189 238 1
189 639 1
189 918 1
189 1098 1
189 1302 1
189 1635 1
189 1731 1
189 2005 1
189 2296 1
189 2469 1
189 2817 1
190 38 1
190 318 1
190 640 1
190 919 1
190 1099 1
190 1303 1
190 1636 1
190 1732 1
190 2006 1
190 2139 1
190 2470 1
190 2818 1
191 39 1
191 398 1
191 641 1
191 920 1
191 1100 1
191 1304 1
191 1637 1
191 1733 1
191 2007 1
191 2219 1
191 2471 1
191 2819 1
192 40 1
192 241 1
192 642 1
192 921 1
192 1101 1
192 1305 1
192 1638 1
192 1734 1
192 2008 1
192 2299 1
192 2472 1
192 2820 1
193 41 1
193 321 1
193 643 1
193 922 1
193 1102 1
193 1306 1
193 1639 1
193 1735 1
193 2009 1
193 2142 1
193 2473 1
193 2821 1
194 42 1
194 401 1
194 644 1
194 923 1
194 1103 1
194 1307 1
194 1640 1
194 1736 1
194 2010 1
194 2222 1
194 2474 1
194 2822 1
195 43 1
195 244 1
195 645 1
195 924 1
195 1104 1
195 1308 1
195 1641 1
195 1737 1
195 2011 1
195 2302 1
195 2475 1
195 2823 1
196 44 1
196 324 1
196 646 1
196 925 1
196 1105 1
196 1309 1
196 1642 1
196 1738 1
196 2012 1
196 2145 1
196 2476 1
196 2824 1
197 45 1
197 404 1
197 647 1
197 926 1
197 1106 1
197 1310 1
197 1643 1
197 1739 1
197 2013 1
197 2225 1
197 2477 1
197 2825 1
198 46 1
198 247 1
198 648 1
198 927 1
198 1107 1
198 1311 1
198 1644 1
198 1740 1
198 2014 1
198 2305 1
198 2478 1
198 2826 1
199 47 1
199 327 1
199 649 1
199 928 1
199 1108 1
199 1312 1
199 1645 1
199 1741 1
199 2015 1
199 2148 1
199 2479 1
199 2827 1
200 48 1
200 407 1
200 650 1
200 929 1
200 1109 1
200 1313 1
200 1646 1
200 1742 1
200 2016 1
200 2228 1
200 2480 1
200 2828 1
201 49 1
201 250 1
201 651 1
201 930 1
201 1110 1
201 1314 1
201 1647 1
201 1743 1
201 2017 1
201 2308 1
201 2481 1
201 2829 1
202 50 1
202 330 1
202 652 1
202 931 1
202 1111 1
202 1315 1
202 1648 1
202 1744 1
202 2018 1
202 2151 1
202 2482 1
202 2830 1
203 51 1
203 410 1
203 653 1
203 932 1
203 1112 1
203 1316 1
203 1649 1
203 1745 1
203 2019 1
203 2231 1
203 2483 1
203 2831 1
204 52 1
204 253 1
204 654 1
204 933 1
204 1113 1
204 1317 1
204 1650 1
204 1746 1
204 2020 1
204 2311 1
204 2484 1
204 2832 1
205 53 1
205 333 1
205 655 1
205 934 1
205 1114 1
205 1318 1
205 1651 1
205 1747 1
205 2021 1
205 2154 1
205 2485 1
205 2833 1
206 54 1
206 413 1
206 656 1
206 935 1
206 1115 1
206 1319 1
206 1652 1
206 1748 1
206 2022 1
206 2234 1
206 2486 1
206 2834 1
207 55 1
207 256 1
207 657 1
207 936 1
207 1116 1
207 1320 1
207 1653 1
207 1749 1
207 2023 1
207 2314 1
207 2487 1
207 2835 1
208 56 1
208 336 1
208 658 1
208 937 1
208 1117 1
208 1321 1
208 1654 1
208 1750 1
208 2024 1
208 2157 1
208 2488 1
208 2836 1
209 57 1
209 416 1
209 659 1
209 938 1
209 1118 1
209 1322 1
209 1655 1
209 1751 1
209 2025 1
209 2237 1
209 2489 1
209 2837 1
210 58 1
210 259 1
210 660 1
210 939 1
210 1119 1
210 1323 1
210 1656 1
210 1752 1
210 2026 1
210 2317 1
210 2490 1
210 2838 1
211 59 1
211 339 1
211 661 1
211 940 1
211 1120 1
211 1324 1
211 1657 1
211 1753 1
211 2027 1
211 2160 1
211 2491 1
211 2839 1
212 60 1
212 419 1
212 662 1
212 941 1
212 1121 1
212 1325 1
212 1658 1
212 1754 1
212 2028 1
212 2240 1
212 2492 1
212 2840 1
213 61 1
213 262 1
213 663 1
213 942 1
213 1122 1
213 1326 1
213 1659 1
213 1755 1
213 2029 1
213 2320 1
213 2493 1
213 2841 1
214 62 1
214 342 1
214 664 1
214 943 1
214 1123 1
214 1327 1
214 1423 1
214 1756 1
214 2030 1
214 2163 1
214 2494 1
214 2842 1
215 63 1
215 422 1
215 665 1
215 944 1
215 1124 1
215 1328 1
215 1424 1
215 1757 1
215 2031 1
215 2243 1
215 2495 1
215 2843 1
216 64 1
216 265 1
216 666 1
216 945 1
216 1125 1
216 1329 1
216 1425 1
216 1758 1
216 2032 1
216 2323 1
216 2496 1
216 2844 1
217 65 1
217 345 1
217 667 1
217 946 1
217 1126 1
217 1330 1
217 1426 1
217 1759 1
217 2033 1
217 2166 1
217 2497 1
217 2608 1
218 66 1
218 425 1
218 668 1
218 947 1
218 1127 1
218 1331 1
218 1427 1
218 1760 1
218 2034 1
218 2246 1
218 2498 1
218 2609 1
219 67 1
219 268 1
219 669 1
219 948 1
219 1128 1
219 1332 1
219 1428 1
219 1761 1
219 2035 1
219 2326 1
219 2499 1
219 2610 1
220 68 1
220 348 1
220 670 1
220 712 1
220 1129 1
220 1333 1
220 1429 1
220 1762 1
220 2036 1
220 2169 1
220 2500 1
220 2611 1
221 69 1
221 428 1
221 671 1
221 713 1
221 1130 1
221 1334 1
221 1430 1
221 1763 1
221 2037 1
221 2249 1
221 2501 1
221 2612 1
222 70 1
222 271 1
222 672 1
222 714 1
222 1131 1
222 1335 1
222 1431 1
222 1764 1
222 2038 1
222 2329 1
222 2502 1
222 2613 1
223 71 1
223 351 1
223 673 1
223 715 1
223 1132 1
223 1336 1
223 1432 1
223 1765 1
223 2039 1
223 2172 1
223 2503 1
223 2614 1
224 72 1
224 431 1
224 674 1
224 716 1
224 1133 1
224 1337 1
224 1433 1
224 1766 1
224 2040 1
224 2252 1
224 2504 1
224 2615 1
225 73 1
225 274 1
225 675 1
225 717 1
225 1134 1
225 1338 1
225 1434 1
225 1767 1
225 2041 1
225 2332 1
225 2505 1
225 2616 1
226 74 1
226 354 1
226 676 1
226 718 1
226 1135 1
226 1339 1
226 1435 1
226 1768 1
226 2042 1
226 2175 1
226 2506 1
226 2617 1
227 75 1
227 434 1
227 677 1
227 719 1
227 1136 1
227 1340 1
227 1436 1
227 1769 1
227 2043 1
227 2255 1
227 2507 1
227 2618 1
228 76 1
228 277 1
228 678 1
228 720 1
228 1137 1
228 1341 1
228 1437 1
228 1770 1
228 2044 1
228 2335 1
228 2508 1
228 2619 1
229 77 1
229 357 1
229 679 1
229 721 1
229 1138 1
229 1342 1
229 1438 1
229 1771 1
229 2045 1
229 2178 1
229 2509 1
229 2620 1
230 78 1
230 437 1
230 680 1
230 722 1
230 1139 1
230 1343 1
230 1439 1
230 1772 1
230 2046 1
230 2258 1
230 2510 1
230 2621 1
231 79 1
231 280 1
231 681 1
231 723 1
231 1140 1
231 1344 1
231 1440 1
231 1773 1
231 2047 1
231 2338 1
231 2511 1
231 2622 1
232 80 1
232 360 1
232 682 1
232 724 1
232 1141 1
232 1345 1
232 1441 1
232 1774 1
232 2048 1
232 2181 1
232 2512 1
232 2623 1
233 81 1
233 440 1
233 683 1
233 725 1
233 1142 1
233 1346 1
233 1442 1
233 1775 1
233 2049 1
233 2261 1
233 2513 1
233 2624 1
234 82 1
234 283 1
234 684 1
234 726 1
234 1143 1
234 1347 1
234 1443 1
234 1776 1
234 2050 1
234 2341 1
234 2514 1
234 2625 1
235 83 1
235 363 1
235 685 1
235 727 1
235 1144 1
235 1348 1
235 1444 1
235 1777 1
235 2051 1
235 2184 1
235 2515 1
235 2626 1
236 84 1
236 443 1
236 686 1
236 728 1
236 1145 1
236 1349 1
236 1445 1
236 1778 1
236 2052 1
236 2264 1
236 2516 1
236 2627 1
237 85 1
237 286 1
237 687 1
237 729 1
237 1146 1
237 1350 1
237 1446 1
237 1779 1
237 2053 1
237 2344 1
237 2517 1
237 2628 1
238 166 1
238 323 1
238 603 1
238 925 1
238 967 1
238 1384 1
238 1444 1
238 1684 1
238 2017 1
238 2291 1
238 2424 1
238 2755 1
239 167 1
239 324 1
239 683 1
239 926 1
239 968 1
239 1385 1
239 1445 1
239 1685 1
239 2018 1
239 2292 1
239 2504 1
239 2756 1
240 168 1
240 325 1
240 526 1
240 927 1
240 969 1
240 1386 1
240 1446 1
240 1686 1
240 2019 1
240 2293 1
240 2584 1
240 2757 1
241 169 1
241 326 1
241 606 1
241 928 1
241 970 1
241 1387 1
241 1447 1
241 1687 1
241 2020 1
241 2294 1
241 2427 1
241 2758 1
242 170 1
242 327 1
242 686 1
242 929 1
242 971 1
242 1388 1
242 1448 1
242 1688 1
242 2021 1
242 2295 1
242 2507 1
242 2759 1
243 171 1
243 328 1
243 529 1
243 930 1
243 972 1
243 1389 1
243 1449 1
243 1689 1
243 2022 1
243 2296 1
243 2587 1
243 2760 1
244 172 1
244 329 1
244 609 1
244 931 1
244 973 1
244 1390 1
244 1450 1
244 1690 1
244 2023 1
244 2297 1
244 2430 1
244 2761 1
245 173 1
245 330 1
245 689 1
245 932 1
245 974 1
245 1391 1
245 1451 1
245 1691 1
245 2024 1
245 2298 1
245 2510 1
245 2762 1
246 174 1
246 331 1
246 532 1
246 933 1
246 975 1
246 1392 1
246 1452 1
246 1692 1
246 2025 1
246 2299 1
246 2590 1
246 2763 1
247 175 1
247 332 1
247 612 1
247 934 1
247 976 1
247 1393 1
247 1453 1
247 1693 1
247 2026 1
247 2300 1
247 2433 1
247 2764 1
248 176 1
248 333 1
248 692 1
248 935 1
248 977 1
248 1394 1
248 1454 1
248 1694 1
248 2027 1
248 2301 1
248 2513 1
248 2765 1
249 177 1
249 334 1
249 535 1
249 936 1
249 978 1
249 1395 1
249 1455 1
249 1695 1
249 2028 1
249 2302 1
249 2593 1
249 2766 1
250 178 1
250 335 1
250 615 1
250 937 1
250 979 1
250 1396 1
250 1456 1
250 1696 1
250 2029 1
250 2303 1
250 2436 1
250 2767 1
251 179 1
251 336 1
251 695 1
251 938 1
251 980 1
251 1397 1
251 1457 1
251 1697 1
251 2030 1
251 2304 1
251 2516 1
251 2768 1
252 180 1
252 337 1
252 538 1
252 939 1
252 981 1
252 1398 1
252 1458 1
252 1698 1
252 2031 1
252 2305 1
252 2596 1
252 2769 1
253 181 1
253 338 1
253 618 1
253 940 1
253 982 1
253 1399 1
253 1459 1
253 1699 1
253 2032 1
253 2306 1
253 2439 1
253 2770 1
254 182 1
254 339 1
254 698 1
254 941 1
254 983 1
254 1400 1
254 1460 1
254 1700 1
254 2033 1
254 2307 1
254 2519 1
254 2771 1
255 183 1
255 340 1
255 541 1
255 942 1
255 984 1
255 1401 1
255 1461 1
255 1701 1
255 2034 1
255 2308 1
255 2599 1
255 2772 1
256 184 1
256 341 1
256 621 1
256 943 1
256 985 1
256 1402 1
256 1462 1
256 1702 1
256 2035 1
256 2309 1
256 2442 1
256 2773 1
257 185 1
257 342 1
257 701 1
257 944 1
257 986 1
257 1403 1
257 1463 1
257 1703 1
257 2036 1
257 2310 1
257 2522 1
257 2774 1
258 186 1
258 343 1
258 544 1
258 945 1
258 987 1
258 1404 1
258 1464 1
258 1704 1
258 2037 1
258 2311 1
258 2602 1
258 2775 1
259 187 1
259 344 1
259 624 1
259 946 1
259 988 1
259 1405 1
259 1465 1
259 1705 1
259 2038 1
259 2312 1
259 2445 1
259 2776 1
260 188 1
260 345 1
260 704 1
260 947 1
260 989 1
260 1406 1
260 1466 1
260 1706 1
260 2039 1
260 2313 1
260 2525 1
260 2777 1
261 189 1
261 346 1
261 547 1
261 948 1
261 990 1
261 1407 1
261 1467 1
261 1707 1
261 2040 1
261 2314 1
261 2605 1
261 2778 1
262 190 1
262 347 1
262 627 1
262 712 1
262 991 1
262 1408 1
262 1468 1
262 1708 1
262 2041 1
262 2315 1
262 2448 1
262 2779 1
263 191 1
263 348 1
263 707 1
263 713 1
263 992 1
263 1409 1
263 1469 1
263 1709 1
263 2042 1
263 2316 1
263 2528 1
263 2780 1
264 192 1
264 349 1
264 550 1
264 714 1
264 993 1
264 1410 1
264 1470 1
264 1710 1
264 2043 1
264 2317 1
264 2371 1
264 2781 1
265 193 1
265 350 1
265 630 1
265 715 1
265 994 1
265 1411 1
265 1471 1
265 1711 1
265 2044 1
265 2318 1
265 2451 1
265 2782 1
266 194 1
266 351 1
266 710 1
266 716 1
266 995 1
266 1412 1
266 1472 1
266 1712 1
266 2045 1
266 2319 1
266 2531 1
266 2783 1
267 195 1
267 352 1
267 553 1
267 717 1
267 996 1
267 1413 1
267 1473 1
267 1713 1
267 2046 1
267 2320 1
267 2374 1
267 2784 1
268 196 1
268 353 1
268 633 1
268 718 1
268 997 1
268 1414 1
268 1474 1
268 1714 1
268 2047 1
268 2321 1
268 2454 1
268 2785 1
269 197 1
269 354 1
269 476 1
269 719 1
269 998 1
269 1415 1
269 1475 1
269 1715 1
269 2048 1
269 2322 1
269 2534 1
269 2786 1
270 198 1
270 355 1
270 556 1
270 720 1
270 999 1
270 1416 1
270 1476 1
270 1716 1
270 2049 1
270 2323 1
270 2377 1
270 2787 1
271 199 1
271 356 1
271 636 1
271 721 1
271 1000 1
271 1417 1
271 1477 1
271 1717 1
271 2050 1
271 2324 1
271 2457 1
271 2788 1
272 200 1
272 357 1
272 479 1
272 722 1
272 1001 1
272 1418 1
272 1478 1
272 1718 1
272 2051 1
272 2325 1
272 2537 1
272 2789 1
273 201 1
273 358 1
273 559 1
273 723 1
273 1002 1
273 1419 1
273 1479 1
273 1719 1
273 2052 1
273 2326 1
273 2380 1
273 2790 1
274 202 1
274 359 1
274 639 1
274 724 1
274 1003 1
274 1420 1
274 1480 1
274 1720 1
274 2053 1
274 2327 1
274 2460 1
274 2791 1
275 203 1
275 360 1
275 482 1
275 725 1
275 1004 1
275 1421 1
275 1481 1
275 1721 1
275 2054 1
275 2328 1
275 2540 1
275 2792 1
276 204 1
276 361 1
276 562 1
276 726 1
276 1005 1
276 1422 1
276 1482 1
276 1722 1
276 2055 1
276 2329 1
276 2383 1
276 2793 1
277 205 1
277 362 1
277 642 1
277 727 1
277 1006 1
277 1186 1
277 1483 1
277 1723 1
277 2056 1
277 2330 1
277 2463 1
277 2794 1
278 206 1
278 363 1
278 485 1
278 728 1
278 1007 1
278 1187 1
278 1484 1
278 1724 1
278 2057 1
278 2331 1
278 2543 1
278 2795 1
279 207 1
279 364 1
279 565 1
279 729 1
279 1008 1
279 1188 1
279 1485 1
279 1725 1
279 2058 1
279 2332 1
279 2386 1
279 2796 1
280 208 1
280 365 1
280 645 1
280 730 1
280 1009 1
280 1189 1
280 1486 1
280 1726 1
280 2059 1
280 2333 1
280 2466 1
280 2797 1
281 209 1
281 366 1
281 488 1
281 731 1
281 1010 1
281 1190 1
281 1487 1
281 1727 1
281 2060 1
281 2334 1
281 2546 1
281 2798 1
282 210 1
282 367 1
282 568 1
282 732 1
282 1011 1
282 1191 1
282 1488 1
282 1728 1
282 2061 1
282 2335 1
282 2389 1
282 2799 1
283 211 1
283 368 1
283 648 1
283 733 1
283 1012 1
283 1192 1
283 1489 1
283 1729 1
283 2062 1
283 2336 1
283 2469 1
283 2800 1
284 212 1
284 369 1
284 491 1
284 734 1
284 1013 1
284 1193 1
284 1490 1
284 1730 1
284 2063 1
284 2337 1
284 2549 1
284 2801 1
285 213 1
285 370 1
285 571 1
285 735 1
285 1014 1
285 1194 1
285 1491 1
285 1731 1
285 2064 1
285 2338 1
285 2392 1
285 2802 1
286 214 1
286 371 1
286 651 1
286 736 1
286 1015 1
286 1195 1
286 1492 1
286 1732 1
286 2065 1
286 2339 1
286 2472 1
286 2803 1
287 215 1
287 372 1
287 494 1
287 737 1
287 1016 1
287 1196 1
287 1493 1
287 1733 1
287 2066 1
287 2340 1
287 2552 1
287 2804 1
288 216 1
288 373 1
288 574 1
288 738 1
288 1017 1
288 1197 1
288 1494 1
288 1734 1
288 2067 1
288 2341 1
288 2395 1
288 2805 1
289 217 1
289 374 1
289 654 1
289 739 1
289 1018 1
289 1198 1
289 1495 1
289 1735 1
289 2068 1
289 2342 1
289 2475 1
289 2806 1
290 218 1
290 375 1
290 497 1
290 740 1
290 1019 1
290 1199 1
290 1496 1
290 1736 1
290 2069 1
290 2343 1
290 2555 1
290 2807 1
291 219 1
291 376 1
291 577 1
291 741 1
291 1020 1
291 1200 1
291 1497 1
291 1737 1
291 2070 1
291 2344 1
291 2398 1
291 2808 1
292 220 1
292 377 1
292 657 1
292 742 1
292 1021 1
292 1201 1
292 1498 1
292 1738 1
292 2071 1
292 2345 1
292 2478 1
292 2809 1
293 221 1
293 378 1
293 500 1
293 743 1
293 1022 1
293 1202 1
293 1499 1
293 1739 1
293 2072 1
293 2346 1
293 2558 1
293 2810 1
294 222 1
294 379 1
294 580 1
294 744 1
294 1023 1
294 1203 1
294 1500 1
294 1740 1
294 2073 1
294 2347 1
294 2401 1
294 2811 1
295 223 1
295 380 1
295 660 1
295 745 1
295 1024 1
295 1204 1
295 1501 1
295 1741 1
295 2074 1
295 2348 1
295 2481 1
295 2812 1
296 224 1
296 381 1
296 503 1
296 746 1
296 1025 1
296 1205 1
296 1502 1
296 1742 1
296 2075 1
296 2349 1
296 2561 1
296 2813 1
297 225 1
297 382 1
297 583 1
297 747 1
297 1026 1
297 1206 1
297 1503 1
297 1743 1
297 2076 1
297 2350 1
297 2404 1
297 2814 1
298 226 1
298 383 1
298 663 1
298 748 1
298 1027 1
298 1207 1
298 1504 1
298 1744 1
298 2077 1
298 2351 1
298 2484 1
298 2815 1
299 227 1
299 384 1
299 506 1
299 749 1
299 1028 1
299 1208 1
299 1505 1
299 1745 1
299 2078 1
299 2352 1
299 2564 1
299 2816 1
300 228 1
300 385 1
300 586 1
300 750 1
300 1029 1
300 1209 1
300 1506 1
300 1746 1
300 2079 1
300 2353 1
300 2407 1
300 2817 1
301 229 1
301 386 1
301 666 1
301 751 1
301 1030 1
301 1210 1
301 1507 1
301 1747 1
301 2080 1
301 2354 1
301 2487 1
301 2818 1
302 230 1
302 387 1
302 509 1
302 752 1
302 1031 1
302 1211 1
302 1508 1
302 1748 1
302 2081 1
302 2355 1
302 2567 1
302 2819 1
303 231 1
303 388 1
303 589 1
303 753 1
303 1032 1
303 1212 1
303 1509 1
303 1749 1
303 2082 1
303 2356 1
303 2410 1
303 2820 1
304 232 1
304 389 1
304 669 1
304 754 1
304 1033 1
304 1213 1
304 1510 1
304 1750 1
304 2083 1
304 2357 1
304 2490 1
304 2821 1
305 233 1
305 390 1
305 512 1
305 755 1
305 1034 1
305 1214 1
305 1511 1
305 1751 1
305 2084 1
305 2358 1
305 2570 1
305 2822 1
306 234 1
306 391 1
306 592 1
306 756 1
306 1035 1
306 1215 1
306 1512 1
306 1752 1
306 2085 1
306 2359 1
306 2413 1
306 2823 1
307 235 1
307 392 1
307 672 1
307 757 1
307 1036 1
307 1216 1
307 1513 1
307 1753 1
307 2086 1
307 2360 1
307 2493 1
307 2824 1
308 236 1
308 393 1
308 515 1
308 758 1
308 1037 1
308 1217 1
308 1514 1
308 1754 1
308 2087 1
308 2361 1
308 2573 1
308 2825 1
309 237 1
309 394 1
309 595 1
309 759 1
309 1038 1
309 1218 1
309 1515 1
309 1755 1
309 2088 1
309 2362 1
309 2416 1
309 2826 1
310 1 1
310 395 1
310 675 1
310 760 1
310 1039 1
310 1219 1
310 1516 1
310 1756 1
310 2089 1
310 2363 1
310 2496 1
310 2827 1
311 2 1
311 396 1
311 518 1
311 761 1
311 1040 1
311 1220 1
311 1517 1
311 1757 1
311 2090 1
311 2364 1
311 2576 1
311 2828 1
312 3 1
312 397 1
312 598 1
312 762 1
312 1041 1
312 1221 1
312 1518 1
312 1758 1
312 2091 1
312 2365 1
312 2419 1
312 2829 1
313 4 1
313 398 1
313 678 1
313 763 1
313 1042 1
313 1222 1
313 1519 1
313 1759 1
313 2092 1
313 2366 1
313 2499 1
313 2830 1
314 5 1
314 399 1
314 521 1
314 764 1
314 1043 1
314 1223 1
314 1520 1
314 1760 1
314 2093 1
314 2367 1
314 2579 1
314 2831 1
315 6 1
315 400 1
315 601 1
315 765 1
315 1044 1
315 1224 1
315 1521 1
315 1761 1
315 2094 1
315 2368 1
315 2422 1
315 2832 1
316 7 1
316 401 1
316 681 1
316 766 1
316 1045 1
316 1225 1
316 1522 1
316 1762 1
316 2095 1
316 2369 1
316 2502 1
316 2833 1
317 8 1
317 402 1
317 524 1
317 767 1
317 1046 1
317 1226 1
317 1523 1
317 1763 1
317 2096 1
317 2370 1
317 2582 1
317 2834 1
318 9 1
318 403 1
318 604 1
318 768 1
318 1047 1
318 1227 1
318 1524 1
318 1764 1
318 2097 1
318 2134 1
318 2425 1
318 2835 1
319 10 1
319 404 1
319 684 1
319 769 1
319 1048 1
319 1228 1
319 1525 1
319 1765 1
319 2098 1
319 2135 1
319 2505 1
319 2836 1
320 11 1
320 405 1
320 527 1
320 770 1
320 1049 1
320 1229 1
320 1526 1
320 1766 1
320 2099 1
320 2136 1
320 2585 1
320 2837 1
321 12 1
321 406 1
321 607 1
321 771 1
321 1050 1
321 1230 1
321 1527 1
321 1767 1
321 2100 1
321 2137 1
321 2428 1
321 2838 1
322 13 1
322 407 1
322 687 1
322 772 1
322 1051 1
322 1231 1
322 1528 1
322 1768 1
322 2101 1
322 2138 1
322 2508 1
322 2839 1
323 14 1
323 408 1
323 530 1
323 773 1
323 1052 1
323 1232 1
323 1529 1
323 1769 1
323 2102 1
323 2139 1
323 2588 1
323 2840 1
324 15 1
324 409 1
324 610 1
324 774 1
324 1053 1
324 1233 1
324 1530 1
324 1770 1
324 2103 1
324 2140 1
324 2431 1
324 2841 1
325 16 1
325 410 1
325 690 1
325 775 1
325 1054 1
325 1234 1
325 1531 1
325 1771 1
325 2104 1
325 2141 1
325 2511 1
325 2842 1
326 17 1
326 411 1
326 533 1
326 776 1
326 1055 1
326 1235 1
326 1532 1
326 1772 1
326 2105 1
326 2142 1
326 2591 1
326 2843 1
327 18 1
327 412 1
327 613 1
327 777 1
327 1056 1
327 1236 1
327 1533 1
327 1773 1
327 2106 1
327 2143 1
327 2434 1
327 2844 1
328 19 1
328 413 1
328 693 1
328 778 1
328 1057 1
328 1237 1
328 1534 1
328 1774 1
328 2107 1
328 2144 1
328 2514 1
328 2608 1
329 20 1
329 414 1
329 536 1
329 779 1
329 1058 1
329 1238 1
329 1535 1
329 1775 1
329 2108 1
329 2145 1
329 2594 1
329 2609 1
330 21 1
330 415 1
330 616 1
330 780 1
330 1059 1
330 1239 1
330 1536 1
330 1776 1
330 2109 1
330 2146 1
330 2437 1
330 2610 1
331 22 1
331 416 1
331 696 1
331 781 1
331 1060 1
331 1240 1
331 1537 1
331 1777 1
331 2110 1
331 2147 1
331 2517 1
331 2611 1
332 23 1
332 417 1
332 539 1
332 782 1
332 1061 1
332 1241 1
332 1538 1
332 1778 1
332 2111 1
332 2148 1
332 2597 1
332 2612 1
333 24 1
333 418 1
333 619 1
333 783 1
333 1062 1
333 1242 1
333 1539 1
333 1779 1
333 2112 1
333 2149 1
333 2440 1
333 2613 1
334 25 1
334 419 1
334 699 1
334 784 1
334 1063 1
334 1243 1
334 1540 1
334 1780 1
334 2113 1
334 2150 1
334 2520 1
334 2614 1
335 26 1
335 420 1
335 542 1
335 785 1
335 1064 1
335 1244 1
335 1541 1
335 1781 1
335 2114 1
335 2151 1
335 2600 1
335 2615 1
336 27 1
336 421 1
336 622 1
336 786 1
336 1065 1
336 1245 1
336 1542 1
336 1782 1
336 2115 1
336 2152 1
336 2443 1
336 2616 1
337 28 1
337 422 1
337 702 1
337 787 1
337 1066 1
337 1246 1
337 1543 1
337 1783 1
337 2116 1
337 2153 1
337 2523 1
337 2617 1
338 29 1
338 423 1
338 545 1
338 788 1
338 1067 1
338 1247 1
338 1544 1
338 1784 1
338 2117 1
338 2154 1
338 2603 1
338 2618 1
339 30 1
339 424 1
339 625 1
339 789 1
339 1068 1
339 1248 1
339 1545 1
339 1785 1
339 2118 1
339 2155 1
339 2446 1
339 2619 1
340 31 1
340 425 1
340 705 1
340 790 1
340 1069 1
340 1249 1
340 1546 1
340 1786 1
340 2119 1
340 2156 1
340 2526 1
340 2620 1
341 32 1
341 426 1
341 548 1
341 791 1
341 1070 1
341 1250 1
341 1547 1
341 1787 1
341 2120 1
341 2157 1
341 2606 1
341 2621 1
342 33 1
342 427 1
342 628 1
342 792 1
342 1071 1
342 1251 1
342 1548 1
342 1788 1
342 2121 1
342 2158 1
342 2449 1
342 2622 1
343 34 1
343 428 1
343 708 1
343 793 1
343 1072 1
343 1252 1
343 1549 1
343 1789 1
343 2122 1
343 2159 1
343 2529 1
343 2623 1
344 35 1
344 429 1
344 551 1
344 794 1
344 1073 1
344 1253 1
344 1550 1
344 1790 1
344 2123 1
344 2160 1
344 2372 1
344 2624 1
345 36 1
345 430 1
345 631 1
345 795 1
345 1074 1
345 1254 1
345 1551 1
345 1791 1
345 2124 1
345 2161 1
345 2452 1
345 2625 1
346 37 1
346 431 1
346 711 1
346 796 1
346 1075 1
346 1255 1
346 1552 1
346 1792 1
346 2125 1
346 2162 1
346 2532 1
346 2626 1
347 38 1
347 432 1
347 554 1
347 797 1
347 1076 1
347 1256 1
347 1553 1
347 1793 1
347 2126 1
347 2163 1
347 2375 1
347 2627 1
348 39 1
348 433 1
348 634 1
348 798 1
348 1077 1
348 1257 1
348 1554 1
348 1794 1
348 2127 1
348 2164 1
348 2455 1
348 2628 1
349 40 1
349 434 1
349 477 1
349 799 1
349 1078 1
349 1258 1
349 1555 1
349 1795 1
349 2128 1
349 2165 1
349 2535 1
349 2629 1
350 41 1
350 435 1
350 557 1
350 800 1
350 1079 1
350 1259 1
350 1556 1
350 1796 1
350 2129 1
350 2166 1
350 2378 1
350 2630 1
351 42 1
351 436 1
351 637 1
351 801 1
351 1080 1
351 1260 1
351 1557 1
351 1797 1
351 2130 1
351 2167 1
351 2458 1
351 2631 1
352 43 1
352 437 1
352 480 1
352 802 1
352 1081 1
352 1261 1
352 1558 1
352 1798 1
352 2131 1
352 2168 1
352 2538 1
352 2632 1
353 44 1
353 438 1
353 560 1
353 803 1
353 1082 1
353 1262 1
353 1559 1
353 1799 1
353 2132 1
353 2169 1
353 2381 1
353 2633 1
354 45 1
354 439 1
354 640 1
354 804 1
354 1083 1
354 1263 1
354 1560 1
354 1800 1
354 2133 1
354 2170 1
354 2461 1
354 2634 1
355 46 1
355 440 1
355 483 1
355 805 1
355 1084 1
355 1264 1
355 1561 1
355 1801 1
355 1897 1
355 2171 1
355 2541 1
355 2635 1
356 47 1
356 441 1
356 563 1
356 806 1
356 1085 1
356 1265 1
356 1562 1
356 1802 1
356 1898 1
356 2172 1
356 2384 1
356 2636 1
357 48 1
357 442 1
357 643 1
357 807 1
357 1086 1
357 1266 1
357 1563 1
357 1803 1
357 1899 1
357 2173 1
357 2464 1
357 2637 1
358 49 1
358 443 1
358 486 1
358 808 1
358 1087 1
358 1267 1
358 1564 1
358 1804 1
358 1900 1
358 2174 1
358 2544 1
358 2638 1
359 50 1
359 444 1
359 566 1
359 809 1
359 1088 1
359 1268 1
359 1565 1
359 1805 1
359 1901 1
359 2175 1
359 2387 1
359 2639 1
360 51 1
360 445 1
360 646 1
360 810 1
360 1089 1
360 1269 1
360 1566 1
360 1806 1
360 1902 1
360 2176 1
360 2467 1
360 2640 1
361 52 1
361 446 1
361 489 1
361 811 1
361 1090 1
361 1270 1
361 1567 1
361 1807 1
361 1903 1
361 2177 1
361 2547 1
361 2641 1
362 53 1
362 447 1
362 569 1
362 812 1
362 1091 1
362 1271 1
362 1568 1
362 1808 1
362 1904 1
362 2178 1
362 2390 1
362 2642 1
363 54 1
363 448 1
363 649 1
363 813 1
363 1092 1
363 1272 1
363 1569 1
363 1809 1
363 1905 1
363 2179 1
363 2470 1
363 2643 1
364 55 1
364 449 1
364 492 1
364 814 1
364 1093 1
364 1273 1
364 1570 1
364 1810 1
364 1906 1
364 2180 1
364 2550 1
364 2644 1
365 56 1
365 450 1
365 572 1
365 815 1
365 1094 1
365 1274 1
365 1571 1
365 1811 1
365 1907 1
365 2181 1
365 2393 1
365 2645 1
366 57 1
366 451 1
366 652 1
366 816 1
366 1095 1
366 1275 1
366 1572 1
366 1812 1
366 1908 1
366 2182 1
366 2473 1
366 2646 1
367 58 1
367 452 1
367 495 1
367 817 1
367 1096 1
367 1276 1
367 1573 1
367 1813 1
367 1909 1
367 2183 1
367 2553 1
367 2647 1
368 59 1
368 453 1
368 575 1
368 818 1
368 1097 1
368 1277 1
368 1574 1
368 1814 1
368 1910 1
368 2184 1
368 2396 1
368 2648 1
369 60 1
369 454 1
369 655 1
369 819 1
369 1098 1
369 1278 1
369 1575 1
369 1815 1
369 1911 1
369 2185 1
369 2476 1
369 2649 1
370 61 1
370 455 1
370 498 1
370 820 1
370 1099 1
370 1279 1
370 1576 1
370 1816 1
370 1912 1
370 2186 1
370 2556 1
370 2650 1
371 62 1
371 456 1
371 578 1
371 821 1
371 1100 1
371 1280 1
371 1577 1
371 1817 1
371 1913 1
371 2187 1
371 2399 1
371 2651 1
372 63 1
372 457 1
372 658 1
372 822 1
372 1101 1
372 1281 1
372 1578 1
372 1818 1
372 1914 1
372 2188 1
372 2479 1
372 2652 1
373 64 1
373 458 1
373 501 1
373 823 1
373 1102 1
373 1282 1
373 1579 1
373 1819 1
373 1915 1
373 2189 1
373 2559 1
373 2653 1
374 65 1
374 459 1
374 581 1
374 824 1
374 1103 1
374 1283 1
374 1580 1
374 1820 1
374 1916 1
374 2190 1
374 2402 1
374 2654 1
375 66 1
375 460 1
375 661 1
375 825 1
375 1104 1
375 1284 1
375 1581 1
375 1821 1
375 1917 1
375 2191 1
375 2482 1
375 2655 1
376 67 1
376 461 1
376 504 1
376 826 1
376 1105 1
376 1285 1
376 1582 1
376 1822 1
376 1918 1
376 2192 1
376 2562 1
376 2656 1
377 68 1
377 462 1
377 584 1
377 827 1
377 1106 1
377 1286 1
377 1583 1
377 1823 1
377 1919 1
377 2193 1
377 2405 1
377 2657 1
378 69 1
378 463 1
378 664 1
378 828 1
378 1107 1
378 1287 1
378 1584 1
378 1824 1
378 1920 1
378 2194 1
378 2485 1
378 2658 1
379 70 1
379 464 1
379 507 1
379 829 1
379 1108 1
379 1288 1
379 1585 1
379 1825 1
379 1921 1
379 2195 1
379 2565 1
379 2659 1
380 71 1
380 465 1
380 587 1
380 830 1
380 1109 1
380 1289 1
380 1586 1
380 1826 1
380 1922 1
380 2196 1
380 2408 1
380 2660 1
381 72 1
381 466 1
381 667 1
381 831 1
381 1110 1
381 1290 1
381 1587 1
381 1827 1
381 1923 1
381 2197 1
381 2488 1
381 2661 1
382 73 1
382 467 1
382 510 1
382 832 1
382 1111 1
382 1291 1
382 1588 1
382 1828 1
382 1924 1
382 2198 1
382 2568 1
382 2662 1
383 74 1
383 468 1
383 590 1
383 833 1
383 1112 1
383 1292 1
383 1589 1
383 1829 1
383 1925 1
383 2199 1
383 2411 1
383 2663 1
384 75 1
384 469 1
384 670 1
384 834 1
384 1113 1
384 1293 1
384 1590 1
384 1830 1
384 1926 1
384 2200 1
384 2491 1
384 2664 1
385 76 1
385 470 1
385 513 1
385 835 1
385 1114 1
385 1294 1
385 1591 1
385 1831 1
385 1927 1
385 2201 1
385 2571 1
385 2665 1
386 77 1
386 471 1
386 593 1
386 836 1
386 1115 1
386 1295 1
386 1592 1
386 1832 1
386 1928 1
386 2202 1
386 2414 1
386 2666 1
387 78 1
387 472 1
387 673 1
387 837 1
387 1116 1
387 1296 1
387 1593 1
387 1833 1
387 1929 1
387 2203 1
387 2494 1
387 2667 1
388 79 1
388 473 1
388 516 1
388 838 1
388 1117 1
388 1297 1
388 1594 1
388 1834 1
388 1930 1
388 2204 1
388 2574 1
388 2668 1
389 80 1
389 474 1
389 596 1
389 839 1
389 1118 1
389 1298 1
389 1595 1
389 1835 1
389 1931 1
389 2205 1
389 2417 1
389 2669 1
390 81 1
390 238 1
390 676 1
390 840 1
390 1119 1
390 1299 1
390 1596 1
390 1836 1
390 1932 1
390 2206 1
390 2497 1
390 2670 1
391 82 1
391 239 1
391 519 1
391 841 1
391 1120 1
391 1300 1
391 1597 1
391 1837 1
391 1933 1
391 2207 1
391 2577 1
391 2671 1
392 83 1
392 240 1
392 599 1
392 842 1
392 1121 1
392 1301 1
392 1598 1
392 1838 1
392 1934 1
392 2208 1
392 2420 1
392 2672 1
393 84 1
393 241 1
393 679 1
393 843 1
393 1122 1
393 1302 1
393 1599 1
393 1839 1
393 1935 1
393 2209 1
393 2500 1
393 2673 1
394 85 1
394 242 1
394 522 1
394 844 1
394 1123 1
394 1303 1
394 1600 1
394 1840 1
394 1936 1
394 2210 1
394 2580 1
394 2674 1
395 86 1
395 243 1
395 602 1
395 845 1
395 1124 1
395 1304 1
395 1601 1
395 1841 1
395 1937 1
395 2211 1
395 2423 1
395 2675 1
396 87 1
396 244 1
396 682 1
396 846 1
396 1125 1
396 1305 1
396 1602 1
396 1842 1
396 1938 1
396 2212 1
396 2503 1
396 2676 1
397 88 1
397 245 1
397 525 1
397 847 1
397 1126 1
397 1306 1
397 1603 1
397 1843 1
397 1939 1
397 2213 1
397 2583 1
397 2677 1
398 89 1
398 246 1
398 605 1
398 848 1
398 1127 1
398 1307 1
398 1604 1
398 1844 1
398 1940 1
398 2214 1
398 2426 1
398 2678 1
399 90 1
399 247 1
399 685 1
399 849 1
399 1128 1
399 1308 1
399 1605 1
399 1845 1
399 1941 1
399 2215 1
399 2506 1
399 2679 1
400 91 1
400 248 1
400 528 1
400 850 1
400 1129 1
400 1309 1
400 1606 1
400 1846 1
400 1942 1
400 2216 1
400 2586 1
400 2680 1
401 92 1
401 249 1
401 608 1
401 851 1
401 1130 1
401 1310 1
401 1607 1
401 1847 1
401 1943 1
401 2217 1
401 2429 1
401 2681 1
402 93 1
402 250 1
402 688 1
402 852 1
402 1131 1
402 1311 1
402 1608 1
402 1848 1
402 1944 1
402 2218 1
402 2509 1
402 2682 1
403 94 1
403 251 1
403 531 1
403 853 1
403 1132 1
403 1312 1
403 1609 1
403 1849 1
403 1945 1
403 2219 1
403 2589 1
403 2683 1
404 95 1
404 252 1
404 611 1
404 854 1
404 1133 1
404 1313 1
404 1610 1
404 1850 1
404 1946 1
404 2220 1
404 2432 1
404 2684 1
405 96 1
405 253 1
405 691 1
405 855 1
405 1134 1
405 1314 1
405 1611 1
405 1851 1
405 1947 1
405 2221 1
405 2512 1
405 2685 1
406 97 1
406 254 1
406 534 1
406 856 1
406 1135 1
406 1315 1
406 1612 1
406 1852 1
406 1948 1
406 2222 1
406 2592 1
406 2686 1
407 98 1
407 255 1
407 614 1
407 857 1
407 1136 1
407 1316 1
407 1613 1
407 1853 1
407 1949 1
407 2223 1
407 2435 1
407 2687 1
408 99 1
408 256 1
408 694 1
408 858 1
408 1137 1
408 1317 1
408 1614 1
408 1854 1
408 1950 1
408 2224 1
408 2515 1
408 2688 1
409 100 1
409 257 1
409 537 1
409 859 1
409 1138 1
409 1318 1
409 1615 1
409 1855 1
409 1951 1
409 2225 1
409 2595 1
409 2689 1
410 101 1
410 258 1
410 617 1
410 860 1
410 1139 1
410 1319 1
410 1616 1
410 1856 1
410 1952 1
410 2226 1
410 2438 1
410 2690 1
411 102 1
411 259 1
411 697 1
411 861 1
411 1140 1
411 1320 1
411 1617 1
411 1857 1
411 1953 1
411 2227 1
411 2518 1
411 2691 1
412 103 1
412 260 1
412 540 1
412 862 1
412 1141 1
412 1321 1
412 1618 1
412 1858 1
412 1954 1
412 2228 1
412 2598 1
412 2692 1
413 104 1
413 261 1
413 620 1
413 863 1
413 1142 1
413 1322 1
413 1619 1
413 1859 1
413 1955 1
413 2229 1
413 2441 1
413 2693 1
414 105 1
414 262 1
414 700 1
414 864 1
414 1143 1
414 1323 1
414 1620 1
414 1860 1
414 1956 1
414 2230 1
414 2521 1
414 2694 1
415 106 1
415 263 1
415 543 1
415 865 1
415 1144 1
415 1324 1
415 1621 1
415 1861 1
415 1957 1
415 2231 1
415 2601 1
415 2695 1
416 107 1
416 264 1
416 623 1
416 866 1
416 1145 1
416 1325 1
416 1622 1
416 1862 1
416 1958 1
416 2232 1
416 2444 1
416 2696 1
417 108 1
417 265 1
417 703 1
417 867 1
417 1146 1
417 1326 1
417 1623 1
417 1863 1
417 1959 1
417 2233 1
417 2524 1
417 2697 1
418 109 1
418 266 1
418 546 1
418 868 1
418 1147 1
418 1327 1
418 1624 1
418 1864 1
418 1960 1
418 2234 1
418 2604 1
418 2698 1
419 110 1
419 267 1
419 626 1
419 869 1
419 1148 1
419 1328 1
419 1625 1
419 1865 1
419 1961 1
419 2235 1
419 2447 1
419 2699 1
420 111 1
420 268 1
420 706 1
420 870 1
420 1149 1
420 1329 1
420 1626 1
420 1866 1
420 1962 1
420 2236 1
420 2527 1
420 2700 1
421 112 1
421 269 1
421 549 1
421 871 1
421 1150 1
421 1330 1
421 1627 1
421 1867 1
421 1963 1
421 2237 1
421 2607 1
421 2701 1
422 113 1
422 270 1
422 629 1
422 872 1
422 1151 1
422 1331 1
422 1628 1
422 1868 1
422 1964 1
422 2238 1
422 2450 1
422 2702 1
423 114 1
423 271 1
423 709 1
423 873 1
423 1152 1
423 1332 1
423 1629 1
423 1869 1
423 1965 1
423 2239 1
423 2530 1
423 2703 1
424 115 1
424 272 1
424 552 1
424 874 1
424 1153 1
424 1333 1
424 1630 1
424 1870 1
424 1966 1
424 2240 1
424 2373 1
424 2704 1
425 116 1
425 273 1
425 632 1
425 875 1
425 1154 1
425 1334 1
425 1631 1
425 1871 1
425 1967 1
425 2241 1
425 2453 1
425 2705 1
426 117 1
426 274 1
426 475 1
426 876 1
426 1155 1
426 1335 1
426 1632 1
426 1872 1
426 1968 1
426 2242 1
426 2533 1
426 2706 1
427 118 1
427 275 1
427 555 1
427 877 1
427 1156 1
427 1336 1
427 1633 1
427 1873 1
427 1969 1
427 2243 1
427 2376 1
427 2707 1
428 119 1
428 276 1
428 635 1
428 878 1
428 1157 1
428 1337 1
428 1634 1
428 1874 1
428 1970 1
428 2244 1
428 2456 1
428 2708 1
429 120 1
429 277 1
429 478 1
429 879 1
429 1158 1
429 1338 1
429 1635 1
429 1875 1
429 1971 1
429 2245 1
429 2536 1
429 2709 1
430 121 1
430 278 1
430 558 1
430 880 1
430 1159 1
430 1339 1
430 1636 1
430 1876 1
430 1972 1
430 2246 1
430 2379 1
430 2710 1
431 122 1
431 279 1
431 638 1
431 881 1
431 1160 1
431 1340 1
431 1637 1
431 1877 1
431 1973 1
431 2247 1
431 2459 1
431 2711 1
432 123 1
432 280 1
432 481 1
432 882 1
432 1161 1
432 1341 1
432 1638 1
432 1878 1
432 1974 1
432 2248 1
432 2539 1
432 2712 1
433 124 1
433 281 1
433 561 1
433 883 1
433 1162 1
433 1342 1
433 1639 1
433 1879 1
433 1975 1
433 2249 1
433 2382 1
433 2713 1
434 125 1
434 282 1
434 641 1
434 884 1
434 1163 1
434 1343 1
434 1640 1
434 1880 1
434 1976 1
434 2250 1
434 2462 1
434 2714 1
435 126 1
435 283 1
435 484 1
435 885 1
435 1164 1
435 1344 1
435 1641 1
435 1881 1
435 1977 1
435 2251 1
435 2542 1
435 2715 1
436 127 1
436 284 1
436 564 1
436 886 1
436 1165 1
436 1345 1
436 1642 1
436 1882 1
436 1978 1
436 2252 1
436 2385 1
436 2716 1
437 128 1
437 285 1
437 644 1
437 887 1
437 1166 1
437 1346 1
437 1643 1
437 1883 1
437 1979 1
437 2253 1
437 2465 1
437 2717 1
438 129 1
438 286 1
438 487 1
438 888 1
438 1167 1
438 1347 1
438 1644 1
438 1884 1
438 1980 1
438 2254 1
438 2545 1
438 2718 1
439 130 1
439 287 1
439 567 1
439 889 1
439 1168 1
439 1348 1
439 1645 1
439 1885 1
439 1981 1
439 2255 1
439 2388 1
439 2719 1
440 131 1
440 288 1
440 647 1
440 890 1
440 1169 1
440 1349 1
440 1646 1
440 1886 1
440 1982 1
440 2256 1
440 2468 1
440 2720 1
441 132 1
441 289 1
441 490 1
441 891 1
441 1170 1
441 1350 1
441 1647 1
441 1887 1
441 1983 1
441 2257 1
441 2548 1
441 2721 1
442 133 1
442 290 1
442 570 1
442 892 1
442 1171 1
442 1351 1
442 1648 1
442 1888 1
442 1984 1
442 2258 1
442 2391 1
442 2722 1
443 134 1
443 291 1
443 650 1
443 893 1
443 1172 1
443 1352 1
443 1649 1
443 1889 1
443 1985 1
443 2259 1
443 2471 1
443 2723 1
444 135 1
444 292 1
444 493 1
444 894 1
444 1173 1
444 1353 1
444 1650 1
444 1890 1
444 1986 1
444 2260 1
444 2551 1
444 2724 1
445 136 1
445 293 1
445 573 1
445 895 1
445 1174 1
445 1354 1
445 1651 1
445 1891 1
445 1987 1
445 2261 1
445 2394 1
445 2725 1
446 137 1
446 294 1
446 653 1
446 896 1
446 1175 1
446 1355 1
446 1652 1
446 1892 1
446 1988 1
446 2262 1
446 2474 1
446 2726 1
447 138 1
447 295 1
447 496 1
447 897 1
447 1176 1
447 1356 1
447 1653 1
447 1893 1
447 1989 1
447 2263 1
447 2554 1
447 2727 1
448 139 1
448 296 1
448 576 1
448 898 1
448 1177 1
448 1357 1
448 1654 1
448 1894 1
448 1990 1
448 2264 1
448 2397 1
448 2728 1
449 140 1
449 297 1
449 656 1
449 899 1
449 1178 1
449 1358 1
449 1655 1
449 1895 1
449 1991 1
449 2265 1
449 2477 1
449 2729 1
450 141 1
450 298 1
450 499 1
450 900 1
450 1179 1
450 1359 1
450 1656 1
450 1896 1
450 1992 1
450 2266 1
450 2557 1
450 2730 1
451 142 1
451 299 1
451 579 1
451 901 1
451 1180 1
451 1360 1
451 1657 1
451 1660 1
451 1993 1
451 2267 1
451 2400 1
451 2731 1
452 143 1
452 300 1
452 659 1
452 902 1
452 1181 1
452 1361 1
452 1658 1
452 1661 1
452 1994 1
452 2268 1
452 2480 1
452 2732 1
453 144 1
453 301 1
453 502 1
453 903 1
453 1182 1
453 1362 1
453 1659 1
453 1662 1
453 1995 1
453 2269 1
453 2560 1
453 2733 1
454 145 1
454 302 1
454 582 1
454 904 1
454 1183 1
454 1363 1
454 1423 1
454 1663 1
454 1996 1
454 2270 1
454 2403 1
454 2734 1
455 146 1
455 303 1
455 662 1
455 905 1
455 1184 1
455 1364 1
455 1424 1
455 1664 1
455 1997 1
455 2271 1
455 2483 1
455 2735 1
456 147 1
456 304 1
456 505 1
456 906 1
456 1185 1
456 1365 1
456 1425 1
456 1665 1
456 1998 1
456 2272 1
456 2563 1
456 2736 1
457 148 1
457 305 1
457 585 1
457 907 1
457 949 1
457 1366 1
457 1426 1
457 1666 1
457 1999 1
457 2273 1
457 2406 1
457 2737 1
458 149 1
458 306 1
458 665 1
458 908 1
458 950 1
458 1367 1
458 1427 1
458 1667 1
458 2000 1
458 2274 1
458 2486 1
458 2738 1
459 150 1
459 307 1
459 508 1
459 909 1
459 951 1
459 1368 1
459 1428 1
459 1668 1
459 2001 1
459 2275 1
459 2566 1
459 2739 1
460 151 1
460 308 1
460 588 1
460 910 1
460 952 1
460 1369 1
460 1429 1
460 1669 1
460 2002 1
460 2276 1
460 2409 1
460 2740 1
461 152 1
461 309 1
461 668 1
461 911 1
461 953 1
461 1370 1
461 1430 1
461 1670 1
461 2003 1
461 2277 1
461 2489 1
461 2741 1
462 153 1
462 310 1
462 511 1
462 912 1
462 954 1
462 1371 1
462 1431 1
462 1671 1
462 2004 1
462 2278 1
462 2569 1
462 2742 1
463 154 1
463 311 1
463 591 1
463 913 1
463 955 1
463 1372 1
463 1432 1
463 1672 1
463 2005 1
463 2279 1
463 2412 1
463 2743 1
464 155 1
464 312 1
464 671 1
464 914 1
464 956 1
464 1373 1
464 1433 1
464 1673 1
464 2006 1
464 2280 1
464 2492 1
464 2744 1
465 156 1
465 313 1
465 514 1
465 915 1
465 957 1
465 1374 1
465 1434 1
465 1674 1
465 2007 1
465 2281 1
465 2572 1
465 2745 1
466 157 1
466 314 1
466 594 1
466 916 1
466 958 1
466 1375 1
466 1435 1
466 1675 1
466 2008 1
466 2282 1
466 2415 1
466 2746 1
467 158 1
467 315 1
467 674 1
467 917 1
467 959 1
467 1376 1
467 1436 1
467 1676 1
467 2009 1
467 2283 1
467 2495 1
467 2747 1
468 159 1
468 316 1
468 517 1
468 918 1
468 960 1
468 1377 1
468 1437 1
468 1677 1
468 2010 1
468 2284 1
468 2575 1
468 2748 1
469 160 1
469 317 1
469 597 1
469 919 1
469 961 1
469 1378 1
469 1438 1
469 1678 1
469 2011 1
469 2285 1
469 2418 1
469 2749 1
470 161 1
470 318 1
470 677 1
470 920 1
470 962 1
470 1379 1
470 1439 1
470 1679 1
470 2012 1
470 2286 1
470 2498 1
470 2750 1
471 162 1
471 319 1
471 520 1
471 921 1
471 963 1
471 1380 1
471 1440 1
471 1680 1
471 2013 1
471 2287 1
471 2578 1
471 2751 1
472 163 1
472 320 1
472 600 1
472 922 1
472 964 1
472 1381 1
472 1441 1
472 1681 1
472 2014 1
472 2288 1
472 2421 1
472 2752 1
473 164 1
473 321 1
473 680 1
473 923 1
473 965 1
473 1382 1
473 1442 1
473 1682 1
473 2015 1
473 2289 1
473 2501 1
473 2753 1
474 165 1
474 322 1
474 523 1
474 924 1
474 966 1
474 1383 1
474 1443 1
474 1683 1
474 2016 1
474 2290 1
474 2581 1
474 2754 1
475 199 1
475 403 1
475 560 1
475 840 1
475 1162 1
475 1204 1
475 1570 1
475 1681 1
475 1921 1
475 2254 1
475 2528 1
475 2661 1
476 200 1
476 404 1
476 561 1
476 920 1
476 1163 1
476 1205 1
476 1571 1
476 1682 1
476 1922 1
476 2255 1
476 2529 1
476 2741 1
477 201 1
477 405 1
477 562 1
477 763 1
477 1164 1
477 1206 1
477 1572 1
477 1683 1
477 1923 1
477 2256 1
477 2530 1
477 2821 1
478 202 1
478 406 1
478 563 1
478 843 1
478 1165 1
478 1207 1
478 1573 1
478 1684 1
478 1924 1
478 2257 1
478 2531 1
478 2664 1
479 203 1
479 407 1
479 564 1
479 923 1
479 1166 1
479 1208 1
479 1574 1
479 1685 1
479 1925 1
479 2258 1
479 2532 1
479 2744 1
480 204 1
480 408 1
480 565 1
480 766 1
480 1167 1
480 1209 1
480 1575 1
480 1686 1
480 1926 1
480 2259 1
480 2533 1
480 2824 1
481 205 1
481 409 1
481 566 1
481 846 1
481 1168 1
481 1210 1
481 1576 1
481 1687 1
481 1927 1
481 2260 1
481 2534 1
481 2667 1
482 206 1
482 410 1
482 567 1
482 926 1
482 1169 1
482 1211 1
482 1577 1
482 1688 1
482 1928 1
482 2261 1
482 2535 1
482 2747 1
483 207 1
483 411 1
483 568 1
483 769 1
483 1170 1
483 1212 1
483 1578 1
483 1689 1
483 1929 1
483 2262 1
483 2536 1
483 2827 1
484 208 1
484 412 1
484 569 1
484 849 1
484 1171 1
484 1213 1
484 1579 1
484 1690 1
484 1930 1
484 2263 1
484 2537 1
484 2670 1
485 209 1
485 413 1
485 570 1
485 929 1
485 1172 1
485 1214 1
485 1580 1
485 1691 1
485 1931 1
485 2264 1
485 2538 1
485 2750 1
486 210 1
486 414 1
486 571 1
486 772 1
486 1173 1
486 1215 1
486 1581 1
486 1692 1
486 1932 1
486 2265 1
486 2539 1
486 2830 1
487 211 1
487 415 1
487 572 1
487 852 1
487 1174 1
487 1216 1
487 1582 1
487 1693 1
487 1933 1
487 2266 1
487 2540 1
487 2673 1
488 212 1
488 416 1
488 573 1
488 932 1
488 1175 1
488 1217 1
488 1583 1
488 1694 1
488 1934 1
488 2267 1
488 2541 1
488 2753 1
489 213 1
489 417 1
489 574 1
489 775 1
489 1176 1
489 1218 1
489 1584 1
489 1695 1
489 1935 1
489 2268 1
489 2542 1
489 2833 1
490 214 1
490 418 1
490 575 1
490 855 1
490 1177 1
490 1219 1
490 1585 1
490 1696 1
490 1936 1
490 2269 1
490 2543 1
490 2676 1
491 215 1
491 419 1
491 576 1
491 935 1
491 1178 1
491 1220 1
491 1586 1
491 1697 1
491 1937 1
491 2270 1
491 2544 1
491 2756 1
492 216 1
492 420 1
492 577 1
492 778 1
492 1179 1
492 1221 1
492 1587 1
492 1698 1
492 1938 1
492 2271 1
492 2545 1
492 2836 1
493 217 1
493 421 1
493 578 1
493 858 1
493 1180 1
493 1222 1
493 1588 1
493 1699 1
493 1939 1
493 2272 1
493 2546 1
493 2679 1
494 218 1
494 422 1
494 579 1
494 938 1
494 1181 1
494 1223 1
494 1589 1
494 1700 1
494 1940 1
494 2273 1
494 2547 1
494 2759 1
495 219 1
495 423 1
495 580 1
495 781 1
495 1182 1
495 1224 1
495 1590 1
495 1701 1
495 1941 1
495 2274 1
495 2548 1
495 2839 1
496 220 1
496 424 1
496 581 1
496 861 1
496 1183 1
496 1225 1
496 1591 1
496 1702 1
496 1942 1
496 2275 1
496 2549 1
496 2682 1
497 221 1
497 425 1
497 582 1
497 941 1
497 1184 1
497 1226 1
497 1592 1
497 1703 1
497 1943 1
497 2276 1
497 2550 1
497 2762 1
498 222 1
498 426 1
498 583 1
498 784 1
498 1185 1
498 1227 1
498 1593 1
498 1704 1
498 1944 1
498 2277 1
498 2551 1
498 2842 1
499 223 1
499 427 1
499 584 1
499 864 1
499 949 1
499 1228 1
499 1594 1
499 1705 1
499 1945 1
499 2278 1
499 2552 1
499 2685 1
500 224 1
500 428 1
500 585 1
500 944 1
500 950 1
500 1229 1
500 1595 1
500 1706 1
500 1946 1
500 2279 1
500 2553 1
500 2765 1
501 225 1
501 429 1
501 586 1
501 787 1
501 951 1
501 1230 1
501 1596 1
501 1707 1
501 1947 1
501 2280 1
501 2554 1
501 2608 1
502 226 1
502 430 1
502 587 1
502 867 1
502 952 1
502 1231 1
502 1597 1
502 1708 1
502 1948 1
502 2281 1
502 2555 1
502 2688 1
503 227 1
503 431 1
503 588 1
503 947 1
503 953 1
503 1232 1
503 1598 1
503 1709 1
503 1949 1
503 2282 1
503 2556 1
503 2768 1
504 228 1
504 432 1
504 589 1
504 790 1
504 954 1
504 1233 1
504 1599 1
504 1710 1
504 1950 1
504 2283 1
504 2557 1
504 2611 1
505 229 1
505 433 1
505 590 1
505 870 1
505 955 1
505 1234 1
505 1600 1
505 1711 1
505 1951 1
505 2284 1
505 2558 1
505 2691 1
506 230 1
506 434 1
506 591 1
506 713 1
506 956 1
506 1235 1
506 1601 1
506 1712 1
506 1952 1
506 2285 1
506 2559 1
506 2771 1
507 231 1
507 435 1
507 592 1
507 793 1
507 957 1
507 1236 1
507 1602 1
507 1713 1
507 1953 1
507 2286 1
507 2560 1
507 2614 1
508 232 1
508 436 1
508 593 1
508 873 1
508 958 1
508 1237 1
508 1603 1
508 1714 1
508 1954 1
508 2287 1
508 2561 1
508 2694 1
509 233 1
509 437 1
509 594 1
509 716 1
509 959 1
509 1238 1
509 1604 1
509 1715 1
509 1955 1
509 2288 1
509 2562 1
509 2774 1
510 234 1
510 438 1
510 595 1
510 796 1
510 960 1
510 1239 1
510 1605 1
510 1716 1
510 1956 1
510 2289 1
510 2563 1
510 2617 1
511 235 1
511 439 1
511 596 1
511 876 1
511 961 1
511 1240 1
511 1606 1
511 1717 1
511 1957 1
511 2290 1
511 2564 1
511 2697 1
512 236 1
512 440 1
512 597 1
512 719 1
512 962 1
512 1241 1
512 1607 1
512 1718 1
512 1958 1
512 2291 1
512 2565 1
512 2777 1
513 237 1
513 441 1
513 598 1
513 799 1
513 963 1
513 1242 1
513 1608 1
513 1719 1
513 1959 1
513 2292 1
513 2566 1
513 2620 1
514 1 1
514 442 1
514 599 1
514 879 1
514 964 1
514 1243 1
514 1609 1
514 1720 1
514 1960 1
514 2293 1
514 2567 1
514 2700 1
515 2 1
515 443 1
515 600 1
515 722 1
515 965 1
515 1244 1
515 1610 1
515 1721 1
515 1961 1
515 2294 1
515 2568 1
515 2780 1
516 3 1
516 444 1
516 601 1
516 802 1
516 966 1
516 1245 1
516 1611 1
516 1722 1
516 1962 1
516 2295 1
516 2569 1
516 2623 1
517 4 1
517 445 1
517 602 1
517 882 1
517 967 1
517 1246 1
517 1612 1
517 1723 1
517 1963 1
517 2296 1
517 2570 1
517 2703 1
518 5 1
518 446 1
518 603 1
518 725 1
518 968 1
518 1247 1
518 1613 1
518 1724 1
518 1964 1
518 2297 1
518 2571 1
518 2783 1
519 6 1
519 447 1
519 604 1
519 805 1
519 969 1
519 1248 1
519 1614 1
519 1725 1
519 1965 1
519 2298 1
519 2572 1
519 2626 1
520 7 1
520 448 1
520 605 1
520 885 1
520 970 1
520 1249 1
520 1615 1
520 1726 1
520 1966 1
520 2299 1
520 2573 1
520 2706 1
521 8 1
521 449 1
521 606 1
521 728 1
521 971 1
521 1250 1
521 1616 1
521 1727 1
521 1967 1
521 2300 1
521 2574 1
521 2786 1
522 9 1
522 450 1
522 607 1
522 808 1
522 972 1
522 1251 1
522 1617 1
522 1728 1
522 1968 1
522 2301 1
522 2575 1
522 2629 1
523 10 1
523 451 1
523 608 1
523 888 1
523 973 1
523 1252 1
523 1618 1
523 1729 1
523 1969 1
523 2302 1
523 2576 1
523 2709 1
524 11 1
524 452 1
524 609 1
524 731 1
524 974 1
524 1253 1
524 1619 1
524 1730 1
524 1970 1
524 2303 1
524 2577 1
524 2789 1
525 12 1
525 453 1
525 610 1
525 811 1
525 975 1
525 1254 1
525 1620 1
525 1731 1
525 1971 1
525 2304 1
525 2578 1
525 2632 1
526 13 1
526 454 1
526 611 1
526 891 1
526 976 1
526 1255 1
526 1621 1
526 1732 1
526 1972 1
526 2305 1
526 2579 1
526 2712 1
527 14 1
527 455 1
527 612 1
527 734 1
527 977 1
527 1256 1
527 1622 1
527 1733 1
527 1973 1
527 2306 1
527 2580 1
527 2792 1
528 15 1
528 456 1
528 613 1
528 814 1
528 978 1
528 1257 1
528 1623 1
528 1734 1
528 1974 1
528 2307 1
528 2581 1
528 2635 1
529 16 1
529 457 1
529 614 1
529 894 1
529 979 1
529 1258 1
529 1624 1
529 1735 1
529 1975 1
529 2308 1
529 2582 1
529 2715 1
530 17 1
530 458 1
530 615 1
530 737 1
530 980 1
530 1259 1
530 1625 1
530 1736 1
530 1976 1
530 2309 1
530 2583 1
530 2795 1
531 18 1
531 459 1
531 616 1
531 817 1
531 981 1
531 1260 1
531 1626 1
531 1737 1
531 1977 1
531 2310 1
531 2584 1
531 2638 1
532 19 1
532 460 1
532 617 1
532 897 1
532 982 1
532 1261 1
532 1627 1
532 1738 1
532 1978 1
532 2311 1
532 2585 1
532 2718 1
533 20 1
533 461 1
533 618 1
533 740 1
533 983 1
533 1262 1
533 1628 1
533 1739 1
533 1979 1
533 2312 1
533 2586 1
533 2798 1
534 21 1
534 462 1
534 619 1
534 820 1
534 984 1
534 1263 1
534 1629 1
534 1740 1
534 1980 1
534 2313 1
534 2587 1
534 2641 1
535 22 1
535 463 1
535 620 1
535 900 1
535 985 1
535 1264 1
535 1630 1
535 1741 1
535 1981 1
535 2314 1
535 2588 1
535 2721 1
536 23 1
536 464 1
536 621 1
536 743 1
536 986 1
536 1265 1
536 1631 1
536 1742 1
536 1982 1
536 2315 1
536 2589 1
536 2801 1
537 24 1
537 465 1
537 622 1
537 823 1
537 987 1
537 1266 1
537 1632 1
537 1743 1
537 1983 1
537 2316 1
537 2590 1
537 2644 1
538 25 1
538 466 1
538 623 1
538 903 1
538 988 1
538 1267 1
538 1633 1
538 1744 1
538 1984 1
538 2317 1
538 2591 1
538 2724 1
539 26 1
539 467 1
539 624 1
539 746 1
539 989 1
539 1268 1
539 1634 1
539 1745 1
539 1985 1
539 2318 1
539 2592 1
539 2804 1
540 27 1
540 468 1
540 625 1
540 826 1
540 990 1
540 1269 1
540 1635 1
540 1746 1
540 1986 1
540 2319 1
540 2593 1
540 2647 1
541 28 1
541 469 1
541 626 1
541 906 1
541 991 1
541 1270 1
541 1636 1
541 1747 1
541 1987 1
541 2320 1
541 2594 1
541 2727 1
542 29 1
542 470 1
542 627 1
542 749 1
542 992 1
542 1271 1
542 1637 1
542 1748 1
542 1988 1
542 2321 1
542 2595 1
542 2807 1
543 30 1
543 471 1
543 628 1
543 829 1
543 993 1
543 1272 1
543 1638 1
543 1749 1
543 1989 1
543 2322 1
543 2596 1
543 2650 1
544 31 1
544 472 1
544 629 1
544 909 1
544 994 1
544 1273 1
544 1639 1
544 1750 1
544 1990 1
544 2323 1
544 2597 1
544 2730 1
545 32 1
545 473 1
545 630 1
545 752 1
545 995 1
545 1274 1
545 1640 1
545 1751 1
545 1991 1
545 2324 1
545 2598 1
545 2810 1
546 33 1
546 474 1
546 631 1
546 832 1
546 996 1
546 1275 1
546 1641 1
546 1752 1
546 1992 1
546 2325 1
546 2599 1
546 2653 1
547 34 1
547 238 1
547 632 1
547 912 1
547 997 1
547 1276 1
547 1642 1
547 1753 1
547 1993 1
547 2326 1
547 2600 1
547 2733 1
548 35 1
548 239 1
548 633 1
548 755 1
548 998 1
548 1277 1
548 1643 1
548 1754 1
548 1994 1
548 2327 1
548 2601 1
548 2813 1
549 36 1
549 240 1
549 634 1
549 835 1
549 999 1
549 1278 1
549 1644 1
549 1755 1
549 1995 1
549 2328 1
549 2602 1
549 2656 1
550 37 1
550 241 1
550 635 1
550 915 1
550 1000 1
550 1279 1
550 1645 1
550 1756 1
550 1996 1
550 2329 1
550 2603 1
550 2736 1
551 38 1
551 242 1
551 636 1
551 758 1
551 1001 1
551 1280 1
551 1646 1
551 1757 1
551 1997 1
551 2330 1
551 2604 1
551 2816 1
552 39 1
552 243 1
552 637 1
552 838 1
552 1002 1
552 1281 1
552 1647 1
552 1758 1
552 1998 1
552 2331 1
552 2605 1
552 2659 1
553 40 1
553 244 1
553 638 1
553 918 1
553 1003 1
553 1282 1
553 1648 1
553 1759 1
553 1999 1
553 2332 1
553 2606 1
553 2739 1
554 41 1
554 245 1
554 639 1
554 761 1
554 1004 1
554 1283 1
554 1649 1
554 1760 1
554 2000 1
554 2333 1
554 2607 1
554 2819 1
555 42 1
555 246 1
555 640 1
555 841 1
555 1005 1
555 1284 1
555 1650 1
555 1761 1
555 2001 1
555 2334 1
555 2371 1
555 2662 1
556 43 1
556 247 1
556 641 1
556 921 1
556 1006 1
556 1285 1
556 1651 1
556 1762 1
556 2002 1
556 2335 1
556 2372 1
556 2742 1
557 44 1
557 248 1
557 642 1
557 764 1
557 1007 1
557 1286 1
557 1652 1
557 1763 1
557 2003 1
557 2336 1
557 2373 1
557 2822 1
558 45 1
558 249 1
558 643 1
558 844 1
558 1008 1
558 1287 1
558 1653 1
558 1764 1
558 2004 1
558 2337 1
558 2374 1
558 2665 1
559 46 1
559 250 1
559 644 1
559 924 1
559 1009 1
559 1288 1
559 1654 1
559 1765 1
559 2005 1
559 2338 1
559 2375 1
559 2745 1
560 47 1
560 251 1
560 645 1
560 767 1
560 1010 1
560 1289 1
560 1655 1
560 1766 1
560 2006 1
560 2339 1
560 2376 1
560 2825 1
561 48 1
561 252 1
561 646 1
561 847 1
561 1011 1
561 1290 1
561 1656 1
561 1767 1
561 2007 1
561 2340 1
561 2377 1
561 2668 1
562 49 1
562 253 1
562 647 1
562 927 1
562 1012 1
562 1291 1
562 1657 1
562 1768 1
562 2008 1
562 2341 1
562 2378 1
562 2748 1
563 50 1
563 254 1
563 648 1
563 770 1
563 1013 1
563 1292 1
563 1658 1
563 1769 1
563 2009 1
563 2342 1
563 2379 1
563 2828 1
564 51 1
564 255 1
564 649 1
564 850 1
564 1014 1
564 1293 1
564 1659 1
564 1770 1
564 2010 1
564 2343 1
564 2380 1
564 2671 1
565 52 1
565 256 1
565 650 1
565 930 1
565 1015 1
565 1294 1
565 1423 1
565 1771 1
565 2011 1
565 2344 1
565 2381 1
565 2751 1
566 53 1
566 257 1
566 651 1
566 773 1
566 1016 1
566 1295 1
566 1424 1
566 1772 1
566 2012 1
566 2345 1
566 2382 1
566 2831 1
567 54 1
567 258 1
567 652 1
567 853 1
567 1017 1
567 1296 1
567 1425 1
567 1773 1
567 2013 1
567 2346 1
567 2383 1
567 2674 1
568 55 1
568 259 1
568 653 1
568 933 1
568 1018 1
568 1297 1
568 1426 1
568 1774 1
568 2014 1
568 2347 1
568 2384 1
568 2754 1
569 56 1
569 260 1
569 654 1
569 776 1
569 1019 1
569 1298 1
569 1427 1
569 1775 1
569 2015 1
569 2348 1
569 2385 1
569 2834 1
570 57 1
570 261 1
570 655 1
570 856 1
570 1020 1
570 1299 1
570 1428 1
570 1776 1
570 2016 1
570 2349 1
570 2386 1
570 2677 1
571 58 1
571 262 1
571 656 1
571 936 1
571 1021 1
571 1300 1
571 1429 1
571 1777 1
571 2017 1
571 2350 1
571 2387 1
571 2757 1
572 59 1
572 263 1
572 657 1
572 779 1
572 1022 1
572 1301 1
572 1430 1
572 1778 1
572 2018 1
572 2351 1
572 2388 1
572 2837 1
573 60 1
573 264 1
573 658 1
573 859 1
573 1023 1
573 1302 1
573 1431 1
573 1779 1
573 2019 1
573 2352 1
573 2389 1
573 2680 1
574 61 1
574 265 1
574 659 1
574 939 1
574 1024 1
574 1303 1
574 1432 1
574 1780 1
574 2020 1
574 2353 1
574 2390 1
574 2760 1
575 62 1
575 266 1
575 660 1
575 782 1
575 1025 1
575 1304 1
575 1433 1
575 1781 1
575 2021 1
575 2354 1
575 2391 1
575 2840 1
576 63 1
576 267 1
576 661 1
576 862 1
576 1026 1
576 1305 1
576 1434 1
576 1782 1
576 2022 1
576 2355 1
576 2392 1
576 2683 1
577 64 1
577 268 1
577 662 1
577 942 1
577 1027 1
577 1306 1
577 1435 1
577 1783 1
577 2023 1
577 2356 1
577 2393 1
577 2763 1
578 65 1
578 269 1
578 663 1
578 785 1
578 1028 1
578 1307 1
578 1436 1
578 1784 1
578 2024 1
578 2357 1
578 2394 1
578 2843 1
579 66 1
579 270 1
579 664 1
579 865 1
579 1029 1
579 1308 1
579 1437 1
579 1785 1
579 2025 1
579 2358 1
579 2395 1
579 2686 1
580 67 1
580 271 1
580 665 1
580 945 1
580 1030 1
580 1309 1
580 1438 1
580 1786 1
580 2026 1
580 2359 1
580 2396 1
580 2766 1
581 68 1
581 272 1
581 666 1
581 788 1
581 1031 1
581 1310 1
581 1439 1
581 1787 1
581 2027 1
581 2360 1
581 2397 1
581 2609 1
582 69 1
582 273 1
582 667 1
582 868 1
582 1032 1
582 1311 1
582 1440 1
582 1788 1
582 2028 1
582 2361 1
582 2398 1
582 2689 1
583 70 1
583 274 1
583 668 1
583 948 1
583 1033 1
583 1312 1
583 1441 1
583 1789 1
583 2029 1
583 2362 1
583 2399 1
583 2769 1
584 71 1
584 275 1
584 669 1
584 791 1
584 1034 1
584 1313 1
584 1442 1
584 1790 1
584 2030 1
584 2363 1
584 2400 1
584 2612 1
585 72 1
585 276 1
585 670 1
585 871 1
585 1035 1
585 1314 1
585 1443 1
585 1791 1
585 2031 1
585 2364 1
585 2401 1
585 2692 1
586 73 1
586 277 1
586 671 1
586 714 1
586 1036 1
586 1315 1
586 1444 1
586 1792 1
586 2032 1
586 2365 1
586 2402 1
586 2772 1
587 74 1
587 278 1
587 672 1
587 794 1
587 1037 1
587 1316 1
587 1445 1
587 1793 1
587 2033 1
587 2366 1
587 2403 1
587 2615 1
588 75 1
588 279 1
588 673 1
588 874 1
588 1038 1
588 1317 1
588 1446 1
588 1794 1
588 2034 1
588 2367 1
588 2404 1
588 2695 1
589 76 1
589 280 1
589 674 1
589 717 1
589 1039 1
589 1318 1
589 1447 1
589 1795 1
589 2035 1
589 2368 1
589 2405 1
589 2775 1
590 77 1
590 281 1
590 675 1
590 797 1
590 1040 1
590 1319 1
590 1448 1
590 1796 1
590 2036 1
590 2369 1
590 2406 1
590 2618 1
591 78 1
591 282 1
591 676 1
591 877 1
591 1041 1
591 1320 1
591 1449 1
591 1797 1
591 2037 1
591 2370 1
591 2407 1
591 2698 1
592 79 1
592 283 1
592 677 1
592 720 1
592 1042 1
592 1321 1
592 1450 1
592 1798 1
592 2038 1
592 2134 1
592 2408 1
592 2778 1
593 80 1
593 284 1
593 678 1
593 800 1
593 1043 1
593 1322 1
593 1451 1
593 1799 1
593 2039 1
593 2135 1
593 2409 1
593 2621 1
594 81 1
594 285 1
594 679 1
594 880 1
594 1044 1
594 1323 1
594 1452 1
594 1800 1
594 2040 1
594 2136 1
594 2410 1
594 2701 1
595 82 1
595 286 1
595 680 1
595 723 1
595 1045 1
595 1324 1
595 1453 1
595 1801 1
595 2041 1
595 2137 1
595 2411 1
595 2781 1
596 83 1
596 287 1
596 681 1
596 803 1
596 1046 1
596 1325 1
596 1454 1
596 1802 1
596 2042 1
596 2138 1
596 2412 1
596 2624 1
597 84 1
597 288 1
597 682 1
597 883 1
597 1047 1
597 1326 1
597 1455 1
597 1803 1
597 2043 1
597 2139 1
597 2413 1
597 2704 1
598 85 1
598 289 1
598 683 1
598 726 1
598 1048 1
598 1327 1
598 1456 1
598 1804 1
598 2044 1
598 2140 1
598 2414 1
598 2784 1
599 86 1
599 290 1
599 684 1
599 806 1
599 1049 1
599 1328 1
599 1457 1
599 1805 1
599 2045 1
599 2141 1
599 2415 1
599 2627 1
600 87 1
600 291 1
600 685 1
600 886 1
600 1050 1
600 1329 1
600 1458 1
600 1806 1
600 2046 1
600 2142 1
600 2416 1
600 2707 1
601 88 1
601 292 1
601 686 1
601 729 1
601 1051 1
601 1330 1
601 1459 1
601 1807 1
601 2047 1
601 2143 1
601 2417 1
601 2787 1
602 89 1
602 293 1
602 687 1
602 809 1
602 1052 1
602 1331 1
602 1460 1
602 1808 1
602 2048 1
602 2144 1
602 2418 1
602 2630 1
603 90 1
603 294 1
603 688 1
603 889 1
603 1053 1
603 1332 1
603 1461 1
603 1809 1
603 2049 1
603 2145 1
603 2419 1
603 2710 1
604 91 1
604 295 1
604 689 1
604 732 1
604 1054 1
604 1333 1
604 1462 1
604 1810 1
604 2050 1
604 2146 1
604 2420 1
604 2790 1
605 92 1
605 296 1
605 690 1
605 812 1
605 1055 1
605 1334 1
605 1463 1
605 1811 1
605 2051 1
605 2147 1
605 2421 1
605 2633 1
606 93 1
606 297 1
606 691 1
606 892 1
606 1056 1
606 1335 1
606 1464 1
606 1812 1
606 2052 1
606 2148 1
606 2422 1
606 2713 1
607 94 1
607 298 1
607 692 1
607 735 1
607 1057 1
607 1336 1
607 1465 1
607 1813 1
607 2053 1
607 2149 1
607 2423 1
607 2793 1
608 95 1
608 299 1
608 693 1
608 815 1
608 1058 1
608 1337 1
608 1466 1
608 1814 1
608 2054 1
608 2150 1
608 2424 1
608 2636 1
609 96 1
609 300 1
609 694 1
609 895 1
609 1059 1
609 1338 1
609 1467 1
609 1815 1
609 2055 1
609 2151 1
609 2425 1
609 2716 1
610 97 1
610 301 1
610 695 1
610 738 1
610 1060 1
610 1339 1
610 1468 1
610 1816 1
610 2056 1
610 2152 1
610 2426 1
610 2796 1
611 98 1
611 302 1
611 696 1
611 818 1
611 1061 1
611 1340 1
611 1469 1
611 1817 1
611 2057 1
611 2153 1
611 2427 1
611 2639 1
612 99 1
612 303 1
612 697 1
612 898 1
612 1062 1
612 1341 1
612 1470 1
612 1818 1
612 2058 1
612 2154 1
612 2428 1
612 2719 1
613 100 1
613 304 1
613 698 1
613 741 1
613 1063 1
613 1342 1
613 1471 1
613 1819 1
613 2059 1
613 2155 1
613 2429 1
613 2799 1
614 101 1
614 305 1
614 699 1
614 821 1
614 1064 1
614 1343 1
614 1472 1
614 1820 1
614 2060 1
614 2156 1
614 2430 1
614 2642 1
615 102 1
615 306 1
615 700 1
615 901 1
615 1065 1
615 1344 1
615 1473 1
615 1821 1
615 2061 1
615 2157 1
615 2431 1
615 2722 1
616 103 1
616 307 1
616 701 1
616 744 1
616 1066 1
616 1345 1
616 1474 1
616 1822 1
616 2062 1
616 2158 1
616 2432 1
616 2802 1
617 104 1
617 308 1
617 702 1
617 824 1
617 1067 1
617 1346 1
617 1475 1
617 1823 1
617 2063 1
617 2159 1
617 2433 1
617 2645 1
618 105 1
618 309 1
618 703 1
618 904 1
618 1068 1
618 1347 1
618 1476 1
618 1824 1
618 2064 1
618 2160 1
618 2434 1
618 2725 1
619 106 1
619 310 1
619 704 1
619 747 1
619 1069 1
619 1348 1
619 1477 1
619 1825 1
619 2065 1
619 2161 1
619 2435 1
619 2805 1
620 107 1
620 311 1
620 705 1
620 827 1
620 1070 1
620 1349 1
620 1478 1
620 1826 1
620 2066 1
620 2162 1
620 2436 1
620 2648 1
621 108 1
621 312 1
621 706 1
621 907 1
621 1071 1
621 1350 1
621 1479 1
621 1827 1
621 2067 1
621 2163 1
621 2437 1
621 2728 1
622 109 1
622 313 1
622 707 1
622 750 1
622 1072 1
622 1351 1
622 1480 1
622 1828 1
622 2068 1
622 2164 1
622 2438 1
622 2808 1
623 110 1
623 314 1
623 708 1
623 830 1
623 1073 1
623 1352 1
623 1481 1
623 1829 1
623 2069 1
623 2165 1
623 2439 1
623 2651 1
624 111 1
624 315 1
624 709 1
624 910 1
624 1074 1
624 1353 1
624 1482 1
624 1830 1
624 2070 1
624 2166 1
624 2440 1
624 2731 1
625 112 1
625 316 1
625 710 1
625 753 1
625 1075 1
625 1354 1
625 1483 1
625 1831 1
625 2071 1
625 2167 1
625 2441 1
625 2811 1
626 113 1
626 317 1
626 711 1
626 833 1
626 1076 1
626 1355 1
626 1484 1
626 1832 1
626 2072 1
626 2168 1
626 2442 1
626 2654 1
627 114 1
627 318 1
627 475 1
627 913 1
627 1077 1
627 1356 1
627 1485 1
627 1833 1
627 2073 1
627 2169 1
627 2443 1
627 2734 1
628 115 1
628 319 1
628 476 1
628 756 1
628 1078 1
628 1357 1
628 1486 1
628 1834 1
628 2074 1
628 2170 1
628 2444 1
628 2814 1
629 116 1
629 320 1
629 477 1
629 836 1
629 1079 1
629 1358 1
629 1487 1
629 1835 1
629 2075 1
629 2171 1
629 2445 1
629 2657 1
630 117 1
630 321 1
630 478 1
630 916 1
630 1080 1
630 1359 1
630 1488 1
630 1836 1
630 2076 1
630 2172 1
630 2446 1
630 2737 1
631 118 1
631 322 1
631 479 1
631 759 1
631 1081 1
631 1360 1
631 1489 1
631 1837 1
631 2077 1
631 2173 1
631 2447 1
631 2817 1
632 119 1
632 323 1
632 480 1
632 839 1
632 1082 1
632 1361 1
632 1490 1
632 1838 1
632 2078 1
632 2174 1
632 2448 1
632 2660 1
633 120 1
633 324 1
633 481 1
633 919 1
633 1083 1
633 1362 1
633 1491 1
633 1839 1
633 2079 1
633 2175 1
633 2449 1
633 2740 1
634 121 1
634 325 1
634 482 1
634 762 1
634 1084 1
634 1363 1
634 1492 1
634 1840 1
634 2080 1
634 2176 1
634 2450 1
634 2820 1
635 122 1
635 326 1
635 483 1
635 842 1
635 1085 1
635 1364 1
635 1493 1
635 1841 1
635 2081 1
635 2177 1
635 2451 1
635 2663 1
636 123 1
636 327 1
636 484 1
636 922 1
636 1086 1
636 1365 1
636 1494 1
636 1842 1
636 2082 1
636 2178 1
636 2452 1
636 2743 1
637 124 1
637 328 1
637 485 1
637 765 1
637 1087 1
637 1366 1
637 1495 1
637 1843 1
637 2083 1
637 2179 1
637 2453 1
637 2823 1
638 125 1
638 329 1
638 486 1
638 845 1
638 1088 1
638 1367 1
638 1496 1
638 1844 1
638 2084 1
638 2180 1
638 2454 1
638 2666 1
639 126 1
639 330 1
639 487 1
639 925 1
639 1089 1
639 1368 1
639 1497 1
639 1845 1
639 2085 1
639 2181 1
639 2455 1
639 2746 1
640 127 1
640 331 1
640 488 1
640 768 1
640 1090 1
640 1369 1
640 1498 1
640 1846 1
640 2086 1
640 2182 1
640 2456 1
640 2826 1
641 128 1
641 332 1
641 489 1
641 848 1
641 1091 1
641 1370 1
641 1499 1
641 1847 1
641 2087 1
641 2183 1
641 2457 1
641 2669 1
642 129 1
642 333 1
642 490 1
642 928 1
642 1092 1
642 1371 1
642 1500 1
642 1848 1
642 2088 1
642 2184 1
642 2458 1
642 2749 1
643 130 1
643 334 1
643 491 1
643 771 1
643 1093 1
643 1372 1
643 1501 1
643 1849 1
643 2089 1
643 2185 1
643 2459 1
643 2829 1
644 131 1
644 335 1
644 492 1
644 851 1
644 1094 1
644 1373 1
644 1502 1
644 1850 1
644 2090 1
644 2186 1
644 2460 1
644 2672 1
645 132 1
645 336 1
645 493 1
645 931 1
645 1095 1
645 1374 1
645 1503 1
645 1851 1
645 2091 1
645 2187 1
645 2461 1
645 2752 1
646 133 1
646 337 1
646 494 1
646 774 1
646 1096 1
646 1375 1
646 1504 1
646 1852 1
646 2092 1
646 2188 1
646 2462 1
646 2832 1
647 134 1
647 338 1
647 495 1
647 854 1
647 1097 1
647 1376 1
647 1505 1
647 1853 1
647 2093 1
647 2189 1
647 2463 1
647 2675 1
648 135 1
648 339 1
648 496 1
648 934 1
648 1098 1
648 1377 1
648 1506 1
648 1854 1
648 2094 1
648 2190 1
648 2464 1
648 2755 1
649 136 1
649 340 1
649 497 1
649 777 1
649 1099 1
649 1378 1
649 1507 1
649 1855 1
649 2095 1
649 2191 1
649 2465 1
649 2835 1
650 137 1
650 341 1
650 498 1
650 857 1
650 1100 1
650 1379 1
650 1508 1
650 1856 1
650 2096 1
650 2192 1
650 2466 1
650 2678 1
651 138 1
651 342 1
651 499 1
651 937 1
651 1101 1
651 1380 1
651 1509 1
651 1857 1
651 2097 1
651 2193 1
651 2467 1
651 2758 1
652 139 1
652 343 1
652 500 1
652 780 1
652 1102 1
652 1381 1
652 1510 1
652 1858 1
652 2098 1
652 2194 1
652 2468 1
652 2838 1
653 140 1
653 344 1
653 501 1
653 860 1
653 1103 1
653 1382 1
653 1511 1
653 1859 1
653 2099 1
653 2195 1
653 2469 1
653 2681 1
654 141 1
654 345 1
654 502 1
654 940 1
654 1104 1
654 1383 1
654 1512 1
654 1860 1
654 2100 1
654 2196 1
654 2470 1
654 2761 1
655 142 1
655 346 1
655 503 1
655 783 1
655 1105 1
655 1384 1
655 1513 1
655 1861 1
655 2101 1
655 2197 1
655 2471 1
655 2841 1
656 143 1
656 347 1
656 504 1
656 863 1
656 1106 1
656 1385 1
656 1514 1
656 1862 1
656 2102 1
656 2198 1
656 2472 1
656 2684 1
657 144 1
657 348 1
657 505 1
657 943 1
657 1107 1
657 1386 1
657 1515 1
657 1863 1
657 2103 1
657 2199 1
657 2473 1
657 2764 1
658 145 1
658 349 1
658 506 1
658 786 1
658 1108 1
658 1387 1
658 1516 1
658 1864 1
658 2104 1
658 2200 1
658 2474 1
658 2844 1
659 146 1
659 350 1
659 507 1
659 866 1
659 1109 1
659 1388 1
659 1517 1
659 1865 1
659 2105 1
659 2201 1
659 2475 1
659 2687 1
660 147 1
660 351 1
660 508 1
660 946 1
660 1110 1
660 1389 1
660 1518 1
660 1866 1
660 2106 1
660 2202 1
660 2476 1
660 2767 1
661 148 1
661 352 1
661 509 1
661 789 1
661 1111 1
661 1390 1
661 1519 1
661 1867 1
661 2107 1
661 2203 1
661 2477 1
661 2610 1
662 149 1
662 353 1
662 510 1
662 869 1
662 1112 1
662 1391 1
662 1520 1
662 1868 1
662 2108 1
662 2204 1
662 2478 1
662 2690 1
663 150 1
663 354 1
663 511 1
663 712 1
663 1113 1
663 1392 1
663 1521 1
663 1869 1
663 2109 1
663 2205 1
663 2479 1
663 2770 1
664 151 1
664 355 1
664 512 1
664 792 1
664 1114 1
664 1393 1
664 1522 1
664 1870 1
664 2110 1
664 2206 1
664 2480 1
664 2613 1
665 152 1
665 356 1
665 513 1
665 872 1
665 1115 1
665 1394 1
665 1523 1
665 1871 1
665 2111 1
665 2207 1
665 2481 1
665 2693 1
666 153 1
666 357 1
666 514 1
666 715 1
666 1116 1
666 1395 1
666 1524 1
666 1872 1
666 2112 1
666 2208 1
666 2482 1
666 2773 1
667 154 1
667 358 1
667 515 1
667 795 1
667 1117 1
667 1396 1
667 1525 1
667 1873 1
667 2113 1
667 2209 1
667 2483 1
667 2616 1
668 155 1
668 359 1
668 516 1
668 875 1
668 1118 1
668 1397 1
668 1526 1
668 1874 1
668 2114 1
668 2210 1
668 2484 1
668 2696 1
669 156 1
669 360 1
669 517 1
669 718 1
669 1119 1
669 1398 1
669 1527 1
669 1875 1
669 2115 1
669 2211 1
669 2485 1
669 2776 1
670 157 1
670 361 1
670 518 1
670 798 1
670 1120 1
670 1399 1
670 1528 1
670 1876 1
670 2116 1
670 2212 1
670 2486 1
670 2619 1
671 158 1
671 362 1
671 519 1
671 878 1
671 1121 1
671 1400 1
671 1529 1
671 1877 1
671 2117 1
671 2213 1
671 2487 1
671 2699 1
672 159 1
672 363 1
672 520 1
672 721 1
672 1122 1
672 1401 1
672 1530 1
672 1878 1
672 2118 1
672 2214 1
672 2488 1
672 2779 1
673 160 1
673 364 1
673 521 1
673 801 1
673 1123 1
673 1402 1
673 1531 1
673 1879 1
673 2119 1
673 2215 1
673 2489 1
673 2622 1
674 161 1
674 365 1
674 522 1
674 881 1
674 1124 1
674 1403 1
674 1532 1
674 1880 1
674 2120 1
674 2216 1
674 2490 1
674 2702 1
675 162 1
675 366 1
675 523 1
675 724 1
675 1125 1
675 1404 1
675 1533 1
675 1881 1
675 2121 1
675 2217 1
675 2491 1
675 2782 1
676 163 1
676 367 1
676 524 1
676 804 1
676 1126 1
676 1405 1
676 1534 1
676 1882 1
676 2122 1
676 2218 1
676 2492 1
676 2625 1
677 164 1
677 368 1
677 525 1
677 884 1
677 1127 1
677 1406 1
677 1535 1
677 1883 1
677 2123 1
677 2219 1
677 2493 1
677 2705 1
678 165 1
678 369 1
678 526 1
678 727 1
678 1128 1
678 1407 1
678 1536 1
678 1884 1
678 2124 1
678 2220 1
678 2494 1
678 2785 1
679 166 1
679 370 1
679 527 1
679 807 1
679 1129 1
679 1408 1
679 1537 1
679 1885 1
679 2125 1
679 2221 1
679 2495 1
679 2628 1
680 167 1
680 371 1
680 528 1
680 887 1
680 1130 1
680 1409 1
680 1538 1
680 1886 1
680 2126 1
680 2222 1
680 2496 1
680 2708 1
681 168 1
681 372 1
681 529 1
681 730 1
681 1131 1
681 1410 1
681 1539 1
681 1887 1
681 2127 1
681 2223 1
681 2497 1
681 2788 1
682 169 1
682 373 1
682 530 1
682 810 1
682 1132 1
682 1411 1
682 1540 1
682 1888 1
682 2128 1
682 2224 1
682 2498 1
682 2631 1
683 170 1
683 374 1
683 531 1
683 890 1
683 1133 1
683 1412 1
683 1541 1
683 1889 1
683 2129 1
683 2225 1
683 2499 1
683 2711 1
684 171 1
684 375 1
684 532 1
684 733 1
684 1134 1
684 1413 1
684 1542 1
684 1890 1
684 2130 1
684 2226 1
684 2500 1
684 2791 1
685 172 1
685 376 1
685 533 1
685 813 1
685 1135 1
685 1414 1
685 1543 1
685 1891 1
685 2131 1
685 2227 1
685 2501 1
685 2634 1
686 173 1
686 377 1
686 534 1
686 893 1
686 1136 1
686 1415 1
686 1544 1
686 1892 1
686 2132 1
686 2228 1
686 2502 1
686 2714 1
687 174 1
687 378 1
687 535 1
687 736 1
687 1137 1
687 1416 1
687 1545 1
687 1893 1
687 2133 1
687 2229 1
687 2503 1
687 2794 1
688 175 1
688 379 1
688 536 1
688 816 1
688 1138 1
688 1417 1
688 1546 1
688 1894 1
688 1897 1
688 2230 1
688 2504 1
688 2637 1
689 176 1
689 380 1
689 537 1
689 896 1
689 1139 1
689 1418 1
689 1547 1
689 1895 1
689 1898 1
689 2231 1
689 2505 1
689 2717 1
690 177 1
690 381 1
690 538 1
690 739 1
690 1140 1
690 1419 1
690 1548 1
690 1896 1
690 1899 1
690 2232 1
690 2506 1
690 2797 1
691 178 1
691 382 1
691 539 1
691 819 1
691 1141 1
691 1420 1
691 1549 1
691 1660 1
691 1900 1
691 2233 1
691 2507 1
691 2640 1
692 179 1
692 383 1
692 540 1
692 899 1
692 1142 1
692 1421 1
692 1550 1
692 1661 1
692 1901 1
692 2234 1
692 2508 1
692 2720 1
693 180 1
693 384 1
693 541 1
693 742 1
693 1143 1
693 1422 1
693 1551 1
693 1662 1
693 1902 1
693 2235 1
693 2509 1
693 2800 1
694 181 1
694 385 1
694 542 1
694 822 1
694 1144 1
694 1186 1
694 1552 1
694 1663 1
694 1903 1
694 2236 1
694 2510 1
694 2643 1
695 182 1
695 386 1
695 543 1
695 902 1
695 1145 1
695 1187 1
695 1553 1
695 1664 1
695 1904 1
695 2237 1
695 2511 1
695 2723 1
696 183 1
696 387 1
696 544 1
696 745 1
696 1146 1
696 1188 1
696 1554 1
696 1665 1
696 1905 1
696 2238 1
696 2512 1
696 2803 1
697 184 1
697 388 1
697 545 1
697 825 1
697 1147 1
697 1189 1
697 1555 1
697 1666 1
697 1906 1
697 2239 1
697 2513 1
697 2646 1
698 185 1
698 389 1
698 546 1
698 905 1
698 1148 1
698 1190 1
698 1556 1
698 1667 1
698 1907 1
698 2240 1
698 2514 1
698 2726 1
699 186 1
699 390 1
699 547 1
699 748 1
699 1149 1
699 1191 1
699 1557 1
699 1668 1
699 1908 1
699 2241 1
699 2515 1
699 2806 1
700 187 1
700 391 1
700 548 1
700 828 1
700 1150 1
700 1192 1
700 1558 1
700 1669 1
700 1909 1
700 2242 1
700 2516 1
700 2649 1
701 188 1
701 392 1
701 549 1
701 908 1
701 1151 1
701 1193 1
701 1559 1
701 1670 1
701 1910 1
701 2243 1
701 2517 1
701 2729 1
702 189 1
702 393 1
702 550 1
702 751 1
702 1152 1
702 1194 1
702 1560 1
702 1671 1
702 1911 1
702 2244 1
702 2518 1
702 2809 1
703 190 1
703 394 1
703 551 1
703 831 1
703 1153 1
703 1195 1
703 1561 1
703 1672 1
703 1912 1
703 2245 1
703 2519 1
703 2652 1
704 191 1
704 395 1
704 552 1
704 911 1
704 1154 1
704 1196 1
704 1562 1
704 1673 1
704 1913 1
704 2246 1
704 2520 1
704 2732 1
705 192 1
705 396 1
705 553 1
705 754 1
705 1155 1
705 1197 1
705 1563 1
705 1674 1
705 1914 1
705 2247 1
705 2521 1
705 2812 1
706 193 1
706 397 1
706 554 1
706 834 1
706 1156 1
706 1198 1
706 1564 1
706 1675 1
706 1915 1
706 2248 1
706 2522 1
706 2655 1
707 194 1
707 398 1
707 555 1
707 914 1
707 1157 1
707 1199 1
707 1565 1
707 1676 1
707 1916 1
707 2249 1
707 2523 1
707 2735 1
708 195 1
708 399 1
708 556 1
708 757 1
708 1158 1
708 1200 1
708 1566 1
708 1677 1
708 1917 1
708 2250 1
708 2524 1
708 2815 1
709 196 1
709 400 1
709 557 1
709 837 1
709 1159 1
709 1201 1
709 1567 1
709 1678 1
709 1918 1
709 2251 1
709 2525 1
709 2658 1
710 197 1
710 401 1
710 558 1
710 917 1
710 1160 1
710 1202 1
710 1568 1
710 1679 1
710 1919 1
710 2252 1
710 2526 1
710 2738 1
711 198 1
711 402 1
711 559 1
711 760 1
711 1161 1
711 1203 1
711 1569 1
711 1680 1
711 1920 1
711 2253 1
711 2527 1
711 2818 1
