%%MatrixMarket matrix coordinate integer general
%
711 2844 8532
1 214 1
1 454 1
1 565 1
1 738 1
1 1029 1
1 1303 1
1 1575 1
1 1732 1
1 1936 1
1 2353 1
1 2395 1
1 2796 1
2 215 1
2 455 1
2 566 1
2 818 1
2 1030 1
2 1304 1
2 1576 1
2 1733 1
2 1937 1
2 2354 1
2 2396 1
2 2639 1
3 216 1
3 456 1
3 567 1
3 898 1
3 1031 1
3 1305 1
3 1577 1
3 1734 1
3 1938 1
3 2355 1
3 2397 1
3 2719 1
4 217 1
4 457 1
4 568 1
4 741 1
4 1032 1
4 1306 1
4 1578 1
4 1735 1
4 1939 1
4 2356 1
4 2398 1
4 2799 1
5 218 1
5 458 1
5 569 1
5 821 1
5 1033 1
5 1307 1
5 1579 1
5 1736 1
5 1940 1
5 2357 1
5 2399 1
5 2642 1
6 219 1
6 459 1
6 570 1
6 901 1
6 1034 1
6 1308 1
6 1580 1
6 1737 1
6 1941 1
6 2358 1
6 2400 1
6 2722 1
7 220 1
7 460 1
7 571 1
7 744 1
7 1035 1
7 1309 1
7 1581 1
7 1738 1
7 1942 1
7 2359 1
7 2401 1
7 2802 1
8 221 1
8 461 1
8 572 1
8 824 1
8 1036 1
8 1310 1
8 1582 1
8 1739 1
8 1943 1
8 2360 1
8 2402 1
8 2645 1
9 222 1
9 462 1
9 573 1
9 904 1
9 1037 1
9 1311 1
9 1583 1
9 1740 1
9 1944 1
9 2361 1
9 2403 1
9 2725 1
10 223 1
10 463 1
10 574 1
10 747 1
10 1038 1
10 1312 1
10 1584 1
10 1741 1
10 1945 1
10 2362 1
10 2404 1
10 2805 1
11 224 1
11 464 1
11 575 1
11 827 1
11 1039 1
11 1313 1
11 1585 1
11 1742 1
11 1946 1
11 2363 1
11 2405 1
11 2648 1
12 225 1
12 465 1
12 576 1
12 907 1
12 1040 1
12 1314 1
12 1586 1
12 1743 1
12 1947 1
12 2364 1
12 2406 1
12 2728 1
13 226 1
13 466 1
13 577 1
13 750 1
13 1041 1
13 1315 1
13 1587 1
13 1744 1
13 1948 1
13 2365 1
13 2407 1
13 2808 1
14 227 1
14 467 1
14 578 1
14 830 1
14 1042 1
14 1316 1
14 1588 1
14 1745 1
14 1949 1
14 2366 1
14 2408 1
14 2651 1
15 228 1
15 468 1
15 579 1
15 910 1
15 1043 1
15 1317 1
15 1589 1
15 1746 1
15 1950 1
15 2367 1
15 2409 1
15 2731 1
16 229 1
16 469 1
16 580 1
16 753 1
16 1044 1
16 1318 1
16 1590 1
16 1747 1
16 1951 1
16 2368 1
16 2410 1
16 2811 1
17 230 1
17 470 1
17 581 1
17 833 1
17 1045 1
17 1319 1
17 1591 1
17 1748 1
17 1952 1
17 2369 1
17 2411 1
17 2654 1
18 231 1
18 471 1
18 582 1
18 913 1
18 1046 1
18 1320 1
18 1592 1
18 1749 1
18 1953 1
18 2370 1
18 2412 1
18 2734 1
19 232 1
19 472 1
19 583 1
19 756 1
19 1047 1
19 1321 1
19 1593 1
19 1750 1
19 1954 1
19 2134 1
19 2413 1
19 2814 1
20 233 1
20 473 1
20 584 1
20 836 1
20 1048 1
20 1322 1
20 1594 1
20 1751 1
20 1955 1
20 2135 1
20 2414 1
20 2657 1
21 234 1
21 474 1
21 585 1
21 916 1
21 1049 1
21 1323 1
21 1595 1
21 1752 1
21 1956 1
21 2136 1
21 2415 1
21 2737 1
22 235 1
22 238 1
22 586 1
22 759 1
22 1050 1
22 1324 1
22 1596 1
22 1753 1
22 1957 1
22 2137 1
22 2416 1
22 2817 1
23 236 1
23 239 1
23 587 1
23 839 1
23 1051 1
23 1325 1
23 1597 1
23 1754 1
23 1958 1
23 2138 1
23 2417 1
23 2660 1
24 237 1
24 240 1
24 588 1
24 919 1
24 1052 1
24 1326 1
24 1598 1
24 1755 1
24 1959 1
24 2139 1
24 2418 1
24 2740 1
25 1 1
25 241 1
25 589 1
25 762 1
25 1053 1
25 1327 1
25 1599 1
25 1756 1
25 1960 1
25 2140 1
25 2419 1
25 2820 1
26 2 1
26 242 1
26 590 1
26 842 1
26 1054 1
26 1328 1
26 1600 1
26 1757 1
26 1961 1
26 2141 1
26 2420 1
26 2663 1
27 3 1
27 243 1
27 591 1
27 922 1
27 1055 1
27 1329 1
27 1601 1
27 1758 1
27 1962 1
27 2142 1
27 2421 1
27 2743 1
28 4 1
28 244 1
28 592 1
28 765 1
28 1056 1
28 1330 1
28 1602 1
28 1759 1
28 1963 1
28 2143 1
28 2422 1
28 2823 1
29 5 1
29 245 1
29 593 1
29 845 1
29 1057 1
29 1331 1
29 1603 1
29 1760 1
29 1964 1
29 2144 1
29 2423 1
29 2666 1
30 6 1
30 246 1
30 594 1
30 925 1
30 1058 1
30 1332 1
30 1604 1
30 1761 1
30 1965 1
30 2145 1
30 2424 1
30 2746 1
31 7 1
31 247 1
31 595 1
31 768 1
31 1059 1
31 1333 1
31 1605 1
31 1762 1
31 1966 1
31 2146 1
31 2425 1
31 2826 1
32 8 1
32 248 1
32 596 1
32 848 1
32 1060 1
32 1334 1
32 1606 1
32 1763 1
32 1967 1
32 2147 1
32 2426 1
32 2669 1
33 9 1
33 249 1
33 597 1
33 928 1
33 1061 1
33 1335 1
33 1607 1
33 1764 1
33 1968 1
33 2148 1
33 2427 1
33 2749 1
34 10 1
34 250 1
34 598 1
34 771 1
34 1062 1
34 1336 1
34 1608 1
34 1765 1
34 1969 1
34 2149 1
34 2428 1
34 2829 1
35 11 1
35 251 1
35 599 1
35 851 1
35 1063 1
35 1337 1
35 1609 1
35 1766 1
35 1970 1
35 2150 1
35 2429 1
35 2672 1
36 12 1
36 252 1
36 600 1
36 931 1
36 1064 1
36 1338 1
36 1610 1
36 1767 1
36 1971 1
36 2151 1
36 2430 1
36 2752 1
37 13 1
37 253 1
37 601 1
37 774 1
37 1065 1
37 1339 1
37 1611 1
37 1768 1
37 1972 1
37 2152 1
37 2431 1
37 2832 1
38 14 1
38 254 1
38 602 1
38 854 1
38 1066 1
38 1340 1
38 1612 1
38 1769 1
38 1973 1
38 2153 1
38 2432 1
38 2675 1
39 15 1
39 255 1
39 603 1
39 934 1
39 1067 1
39 1341 1
39 1613 1
39 1770 1
39 1974 1
39 2154 1
39 2433 1
39 2755 1
40 16 1
40 256 1
40 604 1
40 777 1
40 1068 1
40 1342 1
40 1614 1
40 1771 1
40 1975 1
40 2155 1
40 2434 1
40 2835 1
41 17 1
41 257 1
41 605 1
41 857 1
41 1069 1
41 1343 1
41 1615 1
41 1772 1
41 1976 1
41 2156 1
41 2435 1
41 2678 1
42 18 1
42 258 1
42 606 1
42 937 1
42 1070 1
42 1344 1
42 1616 1
42 1773 1
42 1977 1
42 2157 1
42 2436 1
42 2758 1
43 19 1
43 259 1
43 607 1
43 780 1
43 1071 1
43 1345 1
43 1617 1
43 1774 1
43 1978 1
43 2158 1
43 2437 1
43 2838 1
44 20 1
44 260 1
44 608 1
44 860 1
44 1072 1
44 1346 1
44 1618 1
44 1775 1
44 1979 1
44 2159 1
44 2438 1
44 2681 1
45 21 1
45 261 1
45 609 1
45 940 1
45 1073 1
45 1347 1
45 1619 1
45 1776 1
45 1980 1
45 2160 1
45 2439 1
45 2761 1
46 22 1
46 262 1
46 610 1
46 783 1
46 1074 1
46 1348 1
46 1620 1
46 1777 1
46 1981 1
46 2161 1
46 2440 1
46 2841 1
47 23 1
47 263 1
47 611 1
47 863 1
47 1075 1
47 1349 1
47 1621 1
47 1778 1
47 1982 1
47 2162 1
47 2441 1
47 2684 1
48 24 1
48 264 1
48 612 1
48 943 1
48 1076 1
48 1350 1
48 1622 1
48 1779 1
48 1983 1
48 2163 1
48 2442 1
48 2764 1
49 25 1
49 265 1
49 613 1
49 786 1
49 1077 1
49 1351 1
49 1623 1
49 1780 1
49 1984 1
49 2164 1
49 2443 1
49 2844 1
50 26 1
50 266 1
50 614 1
50 866 1
50 1078 1
50 1352 1
50 1624 1
50 1781 1
50 1985 1
50 2165 1
50 2444 1
50 2687 1
51 27 1
51 267 1
51 615 1
51 946 1
51 1079 1
51 1353 1
51 1625 1
51 1782 1
51 1986 1
51 2166 1
51 2445 1
51 2767 1
52 28 1
52 268 1
52 616 1
52 789 1
52 1080 1
52 1354 1
52 1626 1
52 1783 1
52 1987 1
52 2167 1
52 2446 1
52 2610 1
53 29 1
53 269 1
53 617 1
53 869 1
53 1081 1
53 1355 1
53 1627 1
53 1784 1
53 1988 1
53 2168 1
53 2447 1
53 2690 1
54 30 1
54 270 1
54 618 1
54 712 1
54 1082 1
54 1356 1
54 1628 1
54 1785 1
54 1989 1
54 2169 1
54 2448 1
54 2770 1
55 31 1
55 271 1
55 619 1
55 792 1
55 1083 1
55 1357 1
55 1629 1
55 1786 1
55 1990 1
55 2170 1
55 2449 1
55 2613 1
56 32 1
56 272 1
56 620 1
56 872 1
56 1084 1
56 1358 1
56 1630 1
56 1787 1
56 1991 1
56 2171 1
56 2450 1
56 2693 1
57 33 1
57 273 1
57 621 1
57 715 1
57 1085 1
57 1359 1
57 1631 1
57 1788 1
57 1992 1
57 2172 1
57 2451 1
57 2773 1
58 34 1
58 274 1
58 622 1
58 795 1
58 1086 1
58 1360 1
58 1632 1
58 1789 1
58 1993 1
58 2173 1
58 2452 1
58 2616 1
59 35 1
59 275 1
59 623 1
59 875 1
59 1087 1
59 1361 1
59 1633 1
59 1790 1
59 1994 1
59 2174 1
59 2453 1
59 2696 1
60 36 1
60 276 1
60 624 1
60 718 1
60 1088 1
60 1362 1
60 1634 1
60 1791 1
60 1995 1
60 2175 1
60 2454 1
60 2776 1
61 37 1
61 277 1
61 625 1
61 798 1
61 1089 1
61 1363 1
61 1635 1
61 1792 1
61 1996 1
61 2176 1
61 2455 1
61 2619 1
62 38 1
62 278 1
62 626 1
62 878 1
62 1090 1
62 1364 1
62 1636 1
62 1793 1
62 1997 1
62 2177 1
62 2456 1
62 2699 1
63 39 1
63 279 1
63 627 1
63 721 1
63 1091 1
63 1365 1
63 1637 1
63 1794 1
63 1998 1
63 2178 1
63 2457 1
63 2779 1
64 40 1
64 280 1
64 628 1
64 801 1
64 1092 1
64 1366 1
64 1638 1
64 1795 1
64 1999 1
64 2179 1
64 2458 1
64 2622 1
65 41 1
65 281 1
65 629 1
65 881 1
65 1093 1
65 1367 1
65 1639 1
65 1796 1
65 2000 1
65 2180 1
65 2459 1
65 2702 1
66 42 1
66 282 1
66 630 1
66 724 1
66 1094 1
66 1368 1
66 1640 1
66 1797 1
66 2001 1
66 2181 1
66 2460 1
66 2782 1
67 43 1
67 283 1
67 631 1
67 804 1
67 1095 1
67 1369 1
67 1641 1
67 1798 1
67 2002 1
67 2182 1
67 2461 1
67 2625 1
68 44 1
68 284 1
68 632 1
68 884 1
68 1096 1
68 1370 1
68 1642 1
68 1799 1
68 2003 1
68 2183 1
68 2462 1
68 2705 1
69 45 1
69 285 1
69 633 1
69 727 1
69 1097 1
69 1371 1
69 1643 1
69 1800 1
69 2004 1
69 2184 1
69 2463 1
69 2785 1
70 46 1
70 286 1
70 634 1
70 807 1
70 1098 1
70 1372 1
70 1644 1
70 1801 1
70 2005 1
70 2185 1
70 2464 1
70 2628 1
71 47 1
71 287 1
71 635 1
71 887 1
71 1099 1
71 1373 1
71 1645 1
71 1802 1
71 2006 1
71 2186 1
71 2465 1
71 2708 1
72 48 1
72 288 1
72 636 1
72 730 1
72 1100 1
72 1374 1
72 1646 1
72 1803 1
72 2007 1
72 2187 1
72 2466 1
72 2788 1
73 49 1
73 289 1
73 637 1
73 810 1
73 1101 1
73 1375 1
73 1647 1
73 1804 1
73 2008 1
73 2188 1
73 2467 1
73 2631 1
74 50 1
74 290 1
74 638 1
74 890 1
74 1102 1
74 1376 1
74 1648 1
74 1805 1
74 2009 1
74 2189 1
74 2468 1
74 2711 1
75 51 1
75 291 1
75 639 1
75 733 1
75 1103 1
75 1377 1
75 1649 1
75 1806 1
75 2010 1
75 2190 1
75 2469 1
75 2791 1
76 52 1
76 292 1
76 640 1
76 813 1
76 1104 1
76 1378 1
76 1650 1
76 1807 1
76 2011 1
76 2191 1
76 2470 1
76 2634 1
77 53 1
77 293 1
77 641 1
77 893 1
77 1105 1
77 1379 1
77 1651 1
77 1808 1
77 2012 1
77 2192 1
77 2471 1
77 2714 1
78 54 1
78 294 1
78 642 1
78 736 1
78 1106 1
78 1380 1
78 1652 1
78 1809 1
78 2013 1
78 2193 1
78 2472 1
78 2794 1
79 55 1
79 295 1
79 643 1
79 816 1
79 1107 1
79 1381 1
79 1653 1
79 1810 1
79 2014 1
79 2194 1
79 2473 1
79 2637 1
80 56 1
80 296 1
80 644 1
80 896 1
80 1108 1
80 1382 1
80 1654 1
80 1811 1
80 2015 1
80 2195 1
80 2474 1
80 2717 1
81 57 1
81 297 1
81 645 1
81 739 1
81 1109 1
81 1383 1
81 1655 1
81 1812 1
81 2016 1
81 2196 1
81 2475 1
81 2797 1
82 58 1
82 298 1
82 646 1
82 819 1
82 1110 1
82 1384 1
82 1656 1
82 1813 1
82 2017 1
82 2197 1
82 2476 1
82 2640 1
83 59 1
83 299 1
83 647 1
83 899 1
83 1111 1
83 1385 1
83 1657 1
83 1814 1
83 2018 1
83 2198 1
83 2477 1
83 2720 1
84 60 1
84 300 1
84 648 1
84 742 1
84 1112 1
84 1386 1
84 1658 1
84 1815 1
84 2019 1
84 2199 1
84 2478 1
84 2800 1
85 61 1
85 301 1
85 649 1
85 822 1
85 1113 1
85 1387 1
85 1659 1
85 1816 1
85 2020 1
85 2200 1
85 2479 1
85 2643 1
86 62 1
86 302 1
86 650 1
86 902 1
86 1114 1
86 1388 1
86 1423 1
86 1817 1
86 2021 1
86 2201 1
86 2480 1
86 2723 1
87 63 1
87 303 1
87 651 1
87 745 1
87 1115 1
87 1389 1
87 1424 1
87 1818 1
87 2022 1
87 2202 1
87 2481 1
87 2803 1
88 64 1
88 304 1
88 652 1
88 825 1
88 1116 1
88 1390 1
88 1425 1
88 1819 1
88 2023 1
88 2203 1
88 2482 1
88 2646 1
89 65 1
89 305 1
89 653 1
89 905 1
89 1117 1
89 1391 1
89 1426 1
89 1820 1
89 2024 1
89 2204 1
89 2483 1
89 2726 1
90 66 1
90 306 1
90 654 1
90 748 1
90 1118 1
90 1392 1
90 1427 1
90 1821 1
90 2025 1
90 2205 1
90 2484 1
90 2806 1
91 67 1
91 307 1
91 655 1
91 828 1
91 1119 1
91 1393 1
91 1428 1
91 1822 1
91 2026 1
91 2206 1
91 2485 1
91 2649 1
92 68 1
92 308 1
92 656 1
92 908 1
92 1120 1
92 1394 1
92 1429 1
92 1823 1
92 2027 1
92 2207 1
92 2486 1
92 2729 1
93 69 1
93 309 1
93 657 1
93 751 1
93 1121 1
93 1395 1
93 1430 1
93 1824 1
93 2028 1
93 2208 1
93 2487 1
93 2809 1
94 70 1
94 310 1
94 658 1
94 831 1
94 1122 1
94 1396 1
94 1431 1
94 1825 1
94 2029 1
94 2209 1
94 2488 1
94 2652 1
95 71 1
95 311 1
95 659 1
95 911 1
95 1123 1
95 1397 1
95 1432 1
95 1826 1
95 2030 1
95 2210 1
95 2489 1
95 2732 1
96 72 1
96 312 1
96 660 1
96 754 1
96 1124 1
96 1398 1
96 1433 1
96 1827 1
96 2031 1
96 2211 1
96 2490 1
96 2812 1
97 73 1
97 313 1
97 661 1
97 834 1
97 1125 1
97 1399 1
97 1434 1
97 1828 1
97 2032 1
97 2212 1
97 2491 1
97 2655 1
98 74 1
98 314 1
98 662 1
98 914 1
98 1126 1
98 1400 1
98 1435 1
98 1829 1
98 2033 1
98 2213 1
98 2492 1
98 2735 1
99 75 1
99 315 1
99 663 1
99 757 1
99 1127 1
99 1401 1
99 1436 1
99 1830 1
99 2034 1
99 2214 1
99 2493 1
99 2815 1
100 76 1
100 316 1
100 664 1
100 837 1
100 1128 1
100 1402 1
100 1437 1
100 1831 1
100 2035 1
100 2215 1
100 2494 1
100 2658 1
101 77 1
101 317 1
101 665 1
101 917 1
101 1129 1
101 1403 1
101 1438 1
101 1832 1
101 2036 1
101 2216 1
101 2495 1
101 2738 1
102 78 1
102 318 1
102 666 1
102 760 1
102 1130 1
102 1404 1
102 1439 1
102 1833 1
102 2037 1
102 2217 1
102 2496 1
102 2818 1
103 79 1
103 319 1
103 667 1
103 840 1
103 1131 1
103 1405 1
103 1440 1
103 1834 1
103 2038 1
103 2218 1
103 2497 1
103 2661 1
104 80 1
104 320 1
104 668 1
104 920 1
104 1132 1
104 1406 1
104 1441 1
104 1835 1
104 2039 1
104 2219 1
104 2498 1
104 2741 1
105 81 1
105 321 1
105 669 1
105 763 1
105 1133 1
105 1407 1
105 1442 1
105 1836 1
105 2040 1
105 2220 1
105 2499 1
105 2821 1
106 82 1
106 322 1
106 670 1
106 843 1
106 1134 1
106 1408 1
106 1443 1
106 1837 1
106 2041 1
106 2221 1
106 2500 1
106 2664 1
107 83 1
107 323 1
107 671 1
107 923 1
107 1135 1
107 1409 1
107 1444 1
107 1838 1
107 2042 1
107 2222 1
107 2501 1
107 2744 1
108 84 1
108 324 1
108 672 1
108 766 1
108 1136 1
108 1410 1
108 1445 1
108 1839 1
108 2043 1
108 2223 1
108 2502 1
108 2824 1
109 85 1
109 325 1
109 673 1
109 846 1
109 1137 1
109 1411 1
109 1446 1
109 1840 1
109 2044 1
109 2224 1
109 2503 1
109 2667 1
110 86 1
110 326 1
110 674 1
110 926 1
110 1138 1
110 1412 1
110 1447 1
110 1841 1
110 2045 1
110 2225 1
110 2504 1
110 2747 1
111 87 1
111 327 1
111 675 1
111 769 1
111 1139 1
111 1413 1
111 1448 1
111 1842 1
111 2046 1
111 2226 1
111 2505 1
111 2827 1
112 88 1
112 328 1
112 676 1
112 849 1
112 1140 1
112 1414 1
112 1449 1
112 1843 1
112 2047 1
112 2227 1
112 2506 1
112 2670 1
113 89 1
113 329 1
113 677 1
113 929 1
113 1141 1
113 1415 1
113 1450 1
113 1844 1
113 2048 1
113 2228 1
113 2507 1
113 2750 1
114 90 1
114 330 1
114 678 1
114 772 1
114 1142 1
114 1416 1
114 1451 1
114 1845 1
114 2049 1
114 2229 1
114 2508 1
114 2830 1
115 91 1
115 331 1
115 679 1
115 852 1
115 1143 1
115 1417 1
115 1452 1
115 1846 1
115 2050 1
115 2230 1
115 2509 1
115 2673 1
116 92 1
116 332 1
116 680 1
116 932 1
116 1144 1
116 1418 1
116 1453 1
116 1847 1
116 2051 1
116 2231 1
116 2510 1
116 2753 1
117 93 1
117 333 1
117 681 1
117 775 1
117 1145 1
117 1419 1
117 1454 1
117 1848 1
117 2052 1
117 2232 1
117 2511 1
117 2833 1
118 94 1
118 334 1
118 682 1
118 855 1
118 1146 1
118 1420 1
118 1455 1
118 1849 1
118 2053 1
118 2233 1
118 2512 1
118 2676 1
119 95 1
119 335 1
119 683 1
119 935 1
119 1147 1
119 1421 1
119 1456 1
119 1850 1
119 2054 1
119 2234 1
119 2513 1
119 2756 1
120 96 1
120 336 1
120 684 1
120 778 1
120 1148 1
120 1422 1
120 1457 1
120 1851 1
120 2055 1
120 2235 1
120 2514 1
120 2836 1
121 97 1
121 337 1
121 685 1
121 858 1
121 1149 1
121 1186 1
121 1458 1
121 1852 1
121 2056 1
121 2236 1
121 2515 1
121 2679 1
122 98 1
122 338 1
122 686 1
122 938 1
122 1150 1
122 1187 1
122 1459 1
122 1853 1
122 2057 1
122 2237 1
122 2516 1
122 2759 1
123 99 1
123 339 1
123 687 1
123 781 1
123 1151 1
123 1188 1
123 1460 1
123 1854 1
123 2058 1
123 2238 1
123 2517 1
123 2839 1
124 100 1
124 340 1
124 688 1
124 861 1
124 1152 1
124 1189 1
124 1461 1
124 1855 1
124 2059 1
124 2239 1
124 2518 1
124 2682 1
125 101 1
125 341 1
125 689 1
125 941 1
125 1153 1
125 1190 1
125 1462 1
125 1856 1
125 2060 1
125 2240 1
125 2519 1
125 2762 1
126 102 1
126 342 1
126 690 1
126 784 1
126 1154 1
126 1191 1
126 1463 1
126 1857 1
126 2061 1
126 2241 1
126 2520 1
126 2842 1
127 103 1
127 343 1
127 691 1
127 864 1
127 1155 1
127 1192 1
127 1464 1
127 1858 1
127 2062 1
127 2242 1
127 2521 1
127 2685 1
128 104 1
128 344 1
128 692 1
128 944 1
128 1156 1
128 1193 1
128 1465 1
128 1859 1
128 2063 1
128 2243 1
128 2522 1
128 2765 1
129 105 1
129 345 1
129 693 1
129 787 1
129 1157 1
129 1194 1
129 1466 1
129 1860 1
129 2064 1
129 2244 1
129 2523 1
129 2608 1
130 106 1
130 346 1
130 694 1
130 867 1
130 1158 1
130 1195 1
130 1467 1
130 1861 1
130 2065 1
130 2245 1
130 2524 1
130 2688 1
131 107 1
131 347 1
131 695 1
131 947 1
131 1159 1
131 1196 1
131 1468 1
131 1862 1
131 2066 1
131 2246 1
131 2525 1
131 2768 1
132 108 1
132 348 1
132 696 1
132 790 1
132 1160 1
132 1197 1
132 1469 1
132 1863 1
132 2067 1
132 2247 1
132 2526 1
132 2611 1
133 109 1
133 349 1
133 697 1
133 870 1
133 1161 1
133 1198 1
133 1470 1
133 1864 1
133 2068 1
133 2248 1
133 2527 1
133 2691 1
134 110 1
134 350 1
134 698 1
134 713 1
134 1162 1
134 1199 1
134 1471 1
134 1865 1
134 2069 1
134 2249 1
134 2528 1
134 2771 1
135 111 1
135 351 1
135 699 1
135 793 1
135 1163 1
135 1200 1
135 1472 1
135 1866 1
135 2070 1
135 2250 1
135 2529 1
135 2614 1
136 112 1
136 352 1
136 700 1
136 873 1
136 1164 1
136 1201 1
136 1473 1
136 1867 1
136 2071 1
136 2251 1
136 2530 1
136 2694 1
137 113 1
137 353 1
137 701 1
137 716 1
137 1165 1
137 1202 1
137 1474 1
137 1868 1
137 2072 1
137 2252 1
137 2531 1
137 2774 1
138 114 1
138 354 1
138 702 1
138 796 1
138 1166 1
138 1203 1
138 1475 1
138 1869 1
138 2073 1
138 2253 1
138 2532 1
138 2617 1
139 115 1
139 355 1
139 703 1
139 876 1
139 1167 1
139 1204 1
139 1476 1
139 1870 1
139 2074 1
139 2254 1
139 2533 1
139 2697 1
140 116 1
140 356 1
140 704 1
140 719 1
140 1168 1
140 1205 1
140 1477 1
140 1871 1
140 2075 1
140 2255 1
140 2534 1
140 2777 1
141 117 1
141 357 1
141 705 1
141 799 1
141 1169 1
141 1206 1
141 1478 1
141 1872 1
141 2076 1
141 2256 1
141 2535 1
141 2620 1
142 118 1
142 358 1
142 706 1
142 879 1
142 1170 1
142 1207 1
142 1479 1
142 1873 1
142 2077 1
142 2257 1
142 2536 1
142 2700 1
143 119 1
143 359 1
143 707 1
143 722 1
143 1171 1
143 1208 1
143 1480 1
143 1874 1
143 2078 1
143 2258 1
143 2537 1
143 2780 1
144 120 1
144 360 1
144 708 1
144 802 1
144 1172 1
144 1209 1
144 1481 1
144 1875 1
144 2079 1
144 2259 1
144 2538 1
144 2623 1
145 121 1
145 361 1
145 709 1
145 882 1
145 1173 1
145 1210 1
145 1482 1
145 1876 1
145 2080 1
145 2260 1
145 2539 1
145 2703 1
146 122 1
146 362 1
146 710 1
146 725 1
146 1174 1
146 1211 1
146 1483 1
146 1877 1
146 2081 1
146 2261 1
146 2540 1
146 2783 1
147 123 1
147 363 1
147 711 1
147 805 1
147 1175 1
147 1212 1
147 1484 1
147 1878 1
147 2082 1
147 2262 1
147 2541 1
147 2626 1
148 124 1
148 364 1
148 475 1
148 885 1
148 1176 1
148 1213 1
148 1485 1
148 1879 1
148 2083 1
148 2263 1
148 2542 1
148 2706 1
149 125 1
149 365 1
149 476 1
149 728 1
149 1177 1
149 1214 1
149 1486 1
149 1880 1
149 2084 1
149 2264 1
149 2543 1
149 2786 1
150 126 1
150 366 1
150 477 1
150 808 1
150 1178 1
150 1215 1
150 1487 1
150 1881 1
150 2085 1
150 2265 1
150 2544 1
150 2629 1
151 127 1
151 367 1
151 478 1
151 888 1
151 1179 1
151 1216 1
151 1488 1
151 1882 1
151 2086 1
151 2266 1
151 2545 1
151 2709 1
152 128 1
152 368 1
152 479 1
152 731 1
152 1180 1
152 1217 1
152 1489 1
152 1883 1
152 2087 1
152 2267 1
152 2546 1
152 2789 1
153 129 1
153 369 1
153 480 1
153 811 1
153 1181 1
153 1218 1
153 1490 1
153 1884 1
153 2088 1
153 2268 1
153 2547 1
153 2632 1
154 130 1
154 370 1
154 481 1
154 891 1
154 1182 1
154 1219 1
154 1491 1
154 1885 1
154 2089 1
154 2269 1
154 2548 1
154 2712 1
155 131 1
155 371 1
155 482 1
155 734 1
155 1183 1
155 1220 1
155 1492 1
155 1886 1
155 2090 1
155 2270 1
155 2549 1
155 2792 1
156 132 1
156 372 1
156 483 1
156 814 1
156 1184 1
156 1221 1
156 1493 1
156 1887 1
156 2091 1
156 2271 1
156 2550 1
156 2635 1
157 133 1
157 373 1
157 484 1
157 894 1
157 1185 1
157 1222 1
157 1494 1
157 1888 1
157 2092 1
157 2272 1
157 2551 1
157 2715 1
158 134 1
158 374 1
158 485 1
158 737 1
158 949 1
158 1223 1
158 1495 1
158 1889 1
158 2093 1
158 2273 1
158 2552 1
158 2795 1
159 135 1
159 375 1
159 486 1
159 817 1
159 950 1
159 1224 1
159 1496 1
159 1890 1
159 2094 1
159 2274 1
159 2553 1
159 2638 1
160 136 1
160 376 1
160 487 1
160 897 1
160 951 1
160 1225 1
160 1497 1
160 1891 1
160 2095 1
160 2275 1
160 2554 1
160 2718 1
161 137 1
161 377 1
161 488 1
161 740 1
161 952 1
161 1226 1
161 1498 1
161 1892 1
161 2096 1
161 2276 1
161 2555 1
161 2798 1
162 138 1
162 378 1
162 489 1
162 820 1
162 953 1
162 1227 1
162 1499 1
162 1893 1
162 2097 1
162 2277 1
162 2556 1
162 2641 1
163 139 1
163 379 1
163 490 1
163 900 1
163 954 1
163 1228 1
163 1500 1
163 1894 1
163 2098 1
163 2278 1
163 2557 1
163 2721 1
164 140 1
164 380 1
164 491 1
164 743 1
164 955 1
164 1229 1
164 1501 1
164 1895 1
164 2099 1
164 2279 1
164 2558 1
164 2801 1
165 141 1
165 381 1
165 492 1
165 823 1
165 956 1
165 1230 1
165 1502 1
165 1896 1
165 2100 1
165 2280 1
165 2559 1
165 2644 1
166 142 1
166 382 1
166 493 1
166 903 1
166 957 1
166 1231 1
166 1503 1
166 1660 1
166 2101 1
166 2281 1
166 2560 1
166 2724 1
167 143 1
167 383 1
167 494 1
167 746 1
167 958 1
167 1232 1
167 1504 1
167 1661 1
167 2102 1
167 2282 1
167 2561 1
167 2804 1
168 144 1
168 384 1
168 495 1
168 826 1
168 959 1
168 1233 1
168 1505 1
168 1662 1
168 2103 1
168 2283 1
168 2562 1
168 2647 1
169 145 1
169 385 1
169 496 1
169 906 1
169 960 1
169 1234 1
169 1506 1
169 1663 1
169 2104 1
169 2284 1
169 2563 1
169 2727 1
170 146 1
170 386 1
170 497 1
170 749 1
170 961 1
170 1235 1
170 1507 1
170 1664 1
170 2105 1
170 2285 1
170 2564 1
170 2807 1
171 147 1
171 387 1
171 498 1
171 829 1
171 962 1
171 1236 1
171 1508 1
171 1665 1
171 2106 1
171 2286 1
171 2565 1
171 2650 1
172 148 1
172 388 1
172 499 1
172 909 1
172 963 1
172 1237 1
172 1509 1
172 1666 1
172 2107 1
172 2287 1
172 2566 1
172 2730 1
173 149 1
173 389 1
173 500 1
173 752 1
173 964 1
173 1238 1
173 1510 1
173 1667 1
173 2108 1
173 2288 1
173 2567 1
173 2810 1
174 150 1
174 390 1
174 501 1
174 832 1
174 965 1
174 1239 1
174 1511 1
174 1668 1
174 2109 1
174 2289 1
174 2568 1
174 2653 1
175 151 1
175 391 1
175 502 1
175 912 1
175 966 1
175 1240 1
175 1512 1
175 1669 1
175 2110 1
175 2290 1
175 2569 1
175 2733 1
176 152 1
176 392 1
176 503 1
176 755 1
176 967 1
176 1241 1
176 1513 1
176 1670 1
176 2111 1
176 2291 1
176 2570 1
176 2813 1
177 153 1
177 393 1
177 504 1
177 835 1
177 968 1
177 1242 1
177 1514 1
177 1671 1
177 2112 1
177 2292 1
177 2571 1
177 2656 1
178 154 1
178 394 1
178 505 1
178 915 1
178 969 1
178 1243 1
178 1515 1
178 1672 1
178 2113 1
178 2293 1
178 2572 1
178 2736 1
179 155 1
179 395 1
179 506 1
179 758 1
179 970 1
179 1244 1
179 1516 1
179 1673 1
179 2114 1
179 2294 1
179 2573 1
179 2816 1
180 156 1
180 396 1
180 507 1
180 838 1
180 971 1
180 1245 1
180 1517 1
180 1674 1
180 2115 1
180 2295 1
180 2574 1
180 2659 1
181 157 1
181 397 1
181 508 1
181 918 1
181 972 1
181 1246 1
181 1518 1
181 1675 1
181 2116 1
181 2296 1
181 2575 1
181 2739 1
182 158 1
182 398 1
182 509 1
182 761 1
182 973 1
182 1247 1
182 1519 1
182 1676 1
182 2117 1
182 2297 1
182 2576 1
182 2819 1
183 159 1
183 399 1
183 510 1
183 841 1
183 974 1
183 1248 1
183 1520 1
183 1677 1
183 2118 1
183 2298 1
183 2577 1
183 2662 1
184 160 1
184 400 1
184 511 1
184 921 1
184 975 1
184 1249 1
184 1521 1
184 1678 1
184 2119 1
184 2299 1
184 2578 1
184 2742 1
185 161 1
185 401 1
185 512 1
185 764 1
185 976 1
185 1250 1
185 1522 1
185 1679 1
185 2120 1
185 2300 1
185 2579 1
185 2822 1
186 162 1
186 402 1
186 513 1
186 844 1
186 977 1
186 1251 1
186 1523 1
186 1680 1
186 2121 1
186 2301 1
186 2580 1
186 2665 1
187 163 1
187 403 1
187 514 1
187 924 1
187 978 1
187 1252 1
187 1524 1
187 1681 1
187 2122 1
187 2302 1
187 2581 1
187 2745 1
188 164 1
188 404 1
188 515 1
188 767 1
188 979 1
188 1253 1
188 1525 1
188 1682 1
188 2123 1
188 2303 1
188 2582 1
188 2825 1
189 165 1
189 405 1
189 516 1
189 847 1
189 980 1
189 1254 1
189 1526 1
189 1683 1
189 2124 1
189 2304 1
189 2583 1
189 2668 1
190 166 1
190 406 1
190 517 1
190 927 1
190 981 1
190 1255 1
190 1527 1
190 1684 1
190 2125 1
190 2305 1
190 2584 1
190 2748 1
191 167 1
191 407 1
191 518 1
191 770 1
191 982 1
191 1256 1
191 1528 1
191 1685 1
191 2126 1
191 2306 1
191 2585 1
191 2828 1
192 168 1
192 408 1
192 519 1
192 850 1
192 983 1
192 1257 1
192 1529 1
192 1686 1
192 2127 1
192 2307 1
192 2586 1
192 2671 1
193 169 1
193 409 1
193 520 1
193 930 1
193 984 1
193 1258 1
193 1530 1
193 1687 1
193 2128 1
193 2308 1
193 2587 1
193 2751 1
194 170 1
194 410 1
194 521 1
194 773 1
194 985 1
194 1259 1
194 1531 1
194 1688 1
194 2129 1
194 2309 1
194 2588 1
194 2831 1
195 171 1
195 411 1
195 522 1
195 853 1
195 986 1
195 1260 1
195 1532 1
195 1689 1
195 2130 1
195 2310 1
195 2589 1
195 2674 1
196 172 1
196 412 1
196 523 1
196 933 1
196 987 1
196 1261 1
196 1533 1
196 1690 1
196 2131 1
196 2311 1
196 2590 1
196 2754 1
197 173 1
197 413 1
197 524 1
197 776 1
197 988 1
197 1262 1
197 1534 1
197 1691 1
197 2132 1
197 2312 1
197 2591 1
197 2834 1
198 174 1
198 414 1
198 525 1
198 856 1
198 989 1
198 1263 1
198 1535 1
198 1692 1
198 2133 1
198 2313 1
198 2592 1
198 2677 1
199 175 1
199 415 1
199 526 1
199 936 1
199 990 1
199 1264 1
199 1536 1
199 1693 1
199 1897 1
199 2314 1
199 2593 1
199 2757 1
200 176 1
200 416 1
200 527 1
200 779 1
200 991 1
200 1265 1
200 1537 1
200 1694 1
200 1898 1
200 2315 1
200 2594 1
200 2837 1
201 177 1
201 417 1
201 528 1
201 859 1
201 992 1
201 1266 1
201 1538 1
201 1695 1
201 1899 1
201 2316 1
201 2595 1
201 2680 1
202 178 1
202 418 1
202 529 1
202 939 1
202 993 1
202 1267 1
202 1539 1
202 1696 1
202 1900 1
202 2317 1
202 2596 1
202 2760 1
203 179 1
203 419 1
203 530 1
203 782 1
203 994 1
203 1268 1
203 1540 1
203 1697 1
203 1901 1
203 2318 1
203 2597 1
203 2840 1
204 180 1
204 420 1
204 531 1
204 862 1
204 995 1
204 1269 1
204 1541 1
204 1698 1
204 1902 1
204 2319 1
204 2598 1
204 2683 1
205 181 1
205 421 1
205 532 1
205 942 1
205 996 1
205 1270 1
205 1542 1
205 1699 1
205 1903 1
205 2320 1
205 2599 1
205 2763 1
206 182 1
206 422 1
206 533 1
206 785 1
206 997 1
206 1271 1
206 1543 1
206 1700 1
206 1904 1
206 2321 1
206 2600 1
206 2843 1
207 183 1
207 423 1
207 534 1
207 865 1
207 998 1
207 1272 1
207 1544 1
207 1701 1
207 1905 1
207 2322 1
207 2601 1
207 2686 1
208 184 1
208 424 1
208 535 1
208 945 1
208 999 1
208 1273 1
208 1545 1
208 1702 1
208 1906 1
208 2323 1
208 2602 1
208 2766 1
209 185 1
209 425 1
209 536 1
209 788 1
209 1000 1
209 1274 1
209 1546 1
209 1703 1
209 1907 1
209 2324 1
209 2603 1
209 2609 1
210 186 1
210 426 1
210 537 1
210 868 1
210 1001 1
210 1275 1
210 1547 1
210 1704 1
210 1908 1
210 2325 1
210 2604 1
210 2689 1
211 187 1
211 427 1
211 538 1
211 948 1
211 1002 1
211 1276 1
211 1548 1
211 1705 1
211 1909 1
211 2326 1
211 2605 1
211 2769 1
212 188 1
212 428 1
212 539 1
212 791 1
212 1003 1
212 1277 1
212 1549 1
212 1706 1
212 1910 1
212 2327 1
212 2606 1
212 2612 1
213 189 1
213 429 1
213 540 1
213 871 1
213 1004 1
213 1278 1
213 1550 1
213 1707 1
213 1911 1
213 2328 1
213 2607 1
213 2692 1
214 190 1
214 430 1
214 541 1
214 714 1
214 1005 1
214 1279 1
214 1551 1
214 1708 1
214 1912 1
214 2329 1
214 2371 1
214 2772 1
215 191 1
215 431 1
215 542 1
215 794 1
215 1006 1
215 1280 1
215 1552 1
215 1709 1
215 1913 1
215 2330 1
215 2372 1
215 2615 1
216 192 1
216 432 1
216 543 1
216 874 1
216 1007 1
216 1281 1
216 1553 1
216 1710 1
216 1914 1
216 2331 1
216 2373 1
216 2695 1
217 193 1
217 433 1
217 544 1
217 717 1
217 1008 1
217 1282 1
217 1554 1
217 1711 1
217 1915 1
217 2332 1
217 2374 1
217 2775 1
218 194 1
218 434 1
218 545 1
218 797 1
218 1009 1
218 1283 1
218 1555 1
218 1712 1
218 1916 1
218 2333 1
218 2375 1
218 2618 1
219 195 1
219 435 1
219 546 1
219 877 1
219 1010 1
219 1284 1
219 1556 1
219 1713 1
219 1917 1
219 2334 1
219 2376 1
219 2698 1
220 196 1
220 436 1
220 547 1
220 720 1
220 1011 1
220 1285 1
220 1557 1
220 1714 1
220 1918 1
220 2335 1
220 2377 1
220 2778 1
221 197 1
221 437 1
221 548 1
221 800 1
221 1012 1
221 1286 1
221 1558 1
221 1715 1
221 1919 1
221 2336 1
221 2378 1
221 2621 1
222 198 1
222 438 1
222 549 1
222 880 1
222 1013 1
222 1287 1
222 1559 1
222 1716 1
222 1920 1
222 2337 1
222 2379 1
222 2701 1
223 199 1
223 439 1
223 550 1
223 723 1
223 1014 1
223 1288 1
223 1560 1
223 1717 1
223 1921 1
223 2338 1
223 2380 1
223 2781 1
224 200 1
224 440 1
224 551 1
224 803 1
224 1015 1
224 1289 1
224 1561 1
224 1718 1
224 1922 1
224 2339 1
224 2381 1
224 2624 1
225 201 1
225 441 1
225 552 1
225 883 1
225 1016 1
225 1290 1
225 1562 1
225 1719 1
225 1923 1
225 2340 1
225 2382 1
225 2704 1
226 202 1
226 442 1
226 553 1
226 726 1
226 1017 1
226 1291 1
226 1563 1
226 1720 1
226 1924 1
226 2341 1
226 2383 1
226 2784 1
227 203 1
227 443 1
227 554 1
227 806 1
227 1018 1
227 1292 1
227 1564 1
227 1721 1
227 1925 1
227 2342 1
227 2384 1
227 2627 1
228 204 1
228 444 1
228 555 1
228 886 1
228 1019 1
228 1293 1
228 1565 1
228 1722 1
228 1926 1
228 2343 1
228 2385 1
228 2707 1
229 205 1
229 445 1
229 556 1
229 729 1
229 1020 1
229 1294 1
229 1566 1
229 1723 1
229 1927 1
229 2344 1
229 2386 1
229 2787 1
230 206 1
230 446 1
230 557 1
230 809 1
230 1021 1
230 1295 1
230 1567 1
230 1724 1
230 1928 1
230 2345 1
230 2387 1
230 2630 1
231 207 1
231 447 1
231 558 1
231 889 1
231 1022 1
231 1296 1
231 1568 1
231 1725 1
231 1929 1
231 2346 1
231 2388 1
231 2710 1
232 208 1
232 448 1
232 559 1
232 732 1
232 1023 1
232 1297 1
232 1569 1
232 1726 1
232 1930 1
232 2347 1
232 2389 1
232 2790 1
233 209 1
233 449 1
233 560 1
233 812 1
233 1024 1
233 1298 1
233 1570 1
233 1727 1
233 1931 1
233 2348 1
233 2390 1
233 2633 1
234 210 1
234 450 1
234 561 1
234 892 1
234 1025 1
234 1299 1
234 1571 1
234 1728 1
234 1932 1
234 2349 1
234 2391 1
234 2713 1
235 211 1
235 451 1
235 562 1
235 735 1
235 1026 1
235 1300 1
235 1572 1
235 1729 1
235 1933 1
235 2350 1
235 2392 1
235 2793 1
236 212 1
236 452 1
236 563 1
236 815 1
236 1027 1
236 1301 1
236 1573 1
236 1730 1
236 1934 1
236 2351 1
236 2393 1
236 2636 1
237 213 1
237 453 1
237 564 1
237 895 1
237 1028 1
237 1302 1
237 1574 1
237 1731 1
237 1935 1
237 2352 1
237 2394 1
237 2716 1
238 118 1
238 451 1
238 691 1
238 802 1
238 975 1
238 1266 1
238 1611 1
238 1812 1
238 1969 1
238 2173 1
238 2590 1
238 2632 1
239 119 1
239 452 1
239 692 1
239 803 1
239 1055 1
239 1267 1
239 1454 1
239 1813 1
239 1970 1
239 2174 1
239 2591 1
239 2633 1
240 120 1
240 453 1
240 693 1
240 804 1
240 1135 1
240 1268 1
240 1534 1
240 1814 1
240 1971 1
240 2175 1
240 2592 1
240 2634 1
241 121 1
241 454 1
241 694 1
241 805 1
241 978 1
241 1269 1
241 1614 1
241 1815 1
241 1972 1
241 2176 1
241 2593 1
241 2635 1
242 122 1
242 455 1
242 695 1
242 806 1
242 1058 1
242 1270 1
242 1457 1
242 1816 1
242 1973 1
242 2177 1
242 2594 1
242 2636 1
243 123 1
243 456 1
243 696 1
243 807 1
243 1138 1
243 1271 1
243 1537 1
243 1817 1
243 1974 1
243 2178 1
243 2595 1
243 2637 1
244 124 1
244 457 1
244 697 1
244 808 1
244 981 1
244 1272 1
244 1617 1
244 1818 1
244 1975 1
244 2179 1
244 2596 1
244 2638 1
245 125 1
245 458 1
245 698 1
245 809 1
245 1061 1
245 1273 1
245 1460 1
245 1819 1
245 1976 1
245 2180 1
245 2597 1
245 2639 1
246 126 1
246 459 1
246 699 1
246 810 1
246 1141 1
246 1274 1
246 1540 1
246 1820 1
246 1977 1
246 2181 1
246 2598 1
246 2640 1
247 127 1
247 460 1
247 700 1
247 811 1
247 984 1
247 1275 1
247 1620 1
247 1821 1
247 1978 1
247 2182 1
247 2599 1
247 2641 1
248 128 1
248 461 1
248 701 1
248 812 1
248 1064 1
248 1276 1
248 1463 1
248 1822 1
248 1979 1
248 2183 1
248 2600 1
248 2642 1
249 129 1
249 462 1
249 702 1
249 813 1
249 1144 1
249 1277 1
249 1543 1
249 1823 1
249 1980 1
249 2184 1
249 2601 1
249 2643 1
250 130 1
250 463 1
250 703 1
250 814 1
250 987 1
250 1278 1
250 1623 1
250 1824 1
250 1981 1
250 2185 1
250 2602 1
250 2644 1
251 131 1
251 464 1
251 704 1
251 815 1
251 1067 1
251 1279 1
251 1466 1
251 1825 1
251 1982 1
251 2186 1
251 2603 1
251 2645 1
252 132 1
252 465 1
252 705 1
252 816 1
252 1147 1
252 1280 1
252 1546 1
252 1826 1
252 1983 1
252 2187 1
252 2604 1
252 2646 1
253 133 1
253 466 1
253 706 1
253 817 1
253 990 1
253 1281 1
253 1626 1
253 1827 1
253 1984 1
253 2188 1
253 2605 1
253 2647 1
254 134 1
254 467 1
254 707 1
254 818 1
254 1070 1
254 1282 1
254 1469 1
254 1828 1
254 1985 1
254 2189 1
254 2606 1
254 2648 1
255 135 1
255 468 1
255 708 1
255 819 1
255 1150 1
255 1283 1
255 1549 1
255 1829 1
255 1986 1
255 2190 1
255 2607 1
255 2649 1
256 136 1
256 469 1
256 709 1
256 820 1
256 993 1
256 1284 1
256 1629 1
256 1830 1
256 1987 1
256 2191 1
256 2371 1
256 2650 1
257 137 1
257 470 1
257 710 1
257 821 1
257 1073 1
257 1285 1
257 1472 1
257 1831 1
257 1988 1
257 2192 1
257 2372 1
257 2651 1
258 138 1
258 471 1
258 711 1
258 822 1
258 1153 1
258 1286 1
258 1552 1
258 1832 1
258 1989 1
258 2193 1
258 2373 1
258 2652 1
259 139 1
259 472 1
259 475 1
259 823 1
259 996 1
259 1287 1
259 1632 1
259 1833 1
259 1990 1
259 2194 1
259 2374 1
259 2653 1
260 140 1
260 473 1
260 476 1
260 824 1
260 1076 1
260 1288 1
260 1475 1
260 1834 1
260 1991 1
260 2195 1
260 2375 1
260 2654 1
261 141 1
261 474 1
261 477 1
261 825 1
261 1156 1
261 1289 1
261 1555 1
261 1835 1
261 1992 1
261 2196 1
261 2376 1
261 2655 1
262 142 1
262 238 1
262 478 1
262 826 1
262 999 1
262 1290 1
262 1635 1
262 1836 1
262 1993 1
262 2197 1
262 2377 1
262 2656 1
263 143 1
263 239 1
263 479 1
263 827 1
263 1079 1
263 1291 1
263 1478 1
263 1837 1
263 1994 1
263 2198 1
263 2378 1
263 2657 1
264 144 1
264 240 1
264 480 1
264 828 1
264 1159 1
264 1292 1
264 1558 1
264 1838 1
264 1995 1
264 2199 1
264 2379 1
264 2658 1
265 145 1
265 241 1
265 481 1
265 829 1
265 1002 1
265 1293 1
265 1638 1
265 1839 1
265 1996 1
265 2200 1
265 2380 1
265 2659 1
266 146 1
266 242 1
266 482 1
266 830 1
266 1082 1
266 1294 1
266 1481 1
266 1840 1
266 1997 1
266 2201 1
266 2381 1
266 2660 1
267 147 1
267 243 1
267 483 1
267 831 1
267 1162 1
267 1295 1
267 1561 1
267 1841 1
267 1998 1
267 2202 1
267 2382 1
267 2661 1
268 148 1
268 244 1
268 484 1
268 832 1
268 1005 1
268 1296 1
268 1641 1
268 1842 1
268 1999 1
268 2203 1
268 2383 1
268 2662 1
269 149 1
269 245 1
269 485 1
269 833 1
269 1085 1
269 1297 1
269 1484 1
269 1843 1
269 2000 1
269 2204 1
269 2384 1
269 2663 1
270 150 1
270 246 1
270 486 1
270 834 1
270 1165 1
270 1298 1
270 1564 1
270 1844 1
270 2001 1
270 2205 1
270 2385 1
270 2664 1
271 151 1
271 247 1
271 487 1
271 835 1
271 1008 1
271 1299 1
271 1644 1
271 1845 1
271 2002 1
271 2206 1
271 2386 1
271 2665 1
272 152 1
272 248 1
272 488 1
272 836 1
272 1088 1
272 1300 1
272 1487 1
272 1846 1
272 2003 1
272 2207 1
272 2387 1
272 2666 1
273 153 1
273 249 1
273 489 1
273 837 1
273 1168 1
273 1301 1
273 1567 1
273 1847 1
273 2004 1
273 2208 1
273 2388 1
273 2667 1
274 154 1
274 250 1
274 490 1
274 838 1
274 1011 1
274 1302 1
274 1647 1
274 1848 1
274 2005 1
274 2209 1
274 2389 1
274 2668 1
275 155 1
275 251 1
275 491 1
275 839 1
275 1091 1
275 1303 1
275 1490 1
275 1849 1
275 2006 1
275 2210 1
275 2390 1
275 2669 1
276 156 1
276 252 1
276 492 1
276 840 1
276 1171 1
276 1304 1
276 1570 1
276 1850 1
276 2007 1
276 2211 1
276 2391 1
276 2670 1
277 157 1
277 253 1
277 493 1
277 841 1
277 1014 1
277 1305 1
277 1650 1
277 1851 1
277 2008 1
277 2212 1
277 2392 1
277 2671 1
278 158 1
278 254 1
278 494 1
278 842 1
278 1094 1
278 1306 1
278 1493 1
278 1852 1
278 2009 1
278 2213 1
278 2393 1
278 2672 1
279 159 1
279 255 1
279 495 1
279 843 1
279 1174 1
279 1307 1
279 1573 1
279 1853 1
279 2010 1
279 2214 1
279 2394 1
279 2673 1
280 160 1
280 256 1
280 496 1
280 844 1
280 1017 1
280 1308 1
280 1653 1
280 1854 1
280 2011 1
280 2215 1
280 2395 1
280 2674 1
281 161 1
281 257 1
281 497 1
281 845 1
281 1097 1
281 1309 1
281 1496 1
281 1855 1
281 2012 1
281 2216 1
281 2396 1
281 2675 1
282 162 1
282 258 1
282 498 1
282 846 1
282 1177 1
282 1310 1
282 1576 1
282 1856 1
282 2013 1
282 2217 1
282 2397 1
282 2676 1
283 163 1
283 259 1
283 499 1
283 847 1
283 1020 1
283 1311 1
283 1656 1
283 1857 1
283 2014 1
283 2218 1
283 2398 1
283 2677 1
284 164 1
284 260 1
284 500 1
284 848 1
284 1100 1
284 1312 1
284 1499 1
284 1858 1
284 2015 1
284 2219 1
284 2399 1
284 2678 1
285 165 1
285 261 1
285 501 1
285 849 1
285 1180 1
285 1313 1
285 1579 1
285 1859 1
285 2016 1
285 2220 1
285 2400 1
285 2679 1
286 166 1
286 262 1
286 502 1
286 850 1
286 1023 1
286 1314 1
286 1659 1
286 1860 1
286 2017 1
286 2221 1
286 2401 1
286 2680 1
287 167 1
287 263 1
287 503 1
287 851 1
287 1103 1
287 1315 1
287 1502 1
287 1861 1
287 2018 1
287 2222 1
287 2402 1
287 2681 1
288 168 1
288 264 1
288 504 1
288 852 1
288 1183 1
288 1316 1
288 1582 1
288 1862 1
288 2019 1
288 2223 1
288 2403 1
288 2682 1
289 169 1
289 265 1
289 505 1
289 853 1
289 1026 1
289 1317 1
289 1425 1
289 1863 1
289 2020 1
289 2224 1
289 2404 1
289 2683 1
290 170 1
290 266 1
290 506 1
290 854 1
290 1106 1
290 1318 1
290 1505 1
290 1864 1
290 2021 1
290 2225 1
290 2405 1
290 2684 1
291 171 1
291 267 1
291 507 1
291 855 1
291 949 1
291 1319 1
291 1585 1
291 1865 1
291 2022 1
291 2226 1
291 2406 1
291 2685 1
292 172 1
292 268 1
292 508 1
292 856 1
292 1029 1
292 1320 1
292 1428 1
292 1866 1
292 2023 1
292 2227 1
292 2407 1
292 2686 1
293 173 1
293 269 1
293 509 1
293 857 1
293 1109 1
293 1321 1
293 1508 1
293 1867 1
293 2024 1
293 2228 1
293 2408 1
293 2687 1
294 174 1
294 270 1
294 510 1
294 858 1
294 952 1
294 1322 1
294 1588 1
294 1868 1
294 2025 1
294 2229 1
294 2409 1
294 2688 1
295 175 1
295 271 1
295 511 1
295 859 1
295 1032 1
295 1323 1
295 1431 1
295 1869 1
295 2026 1
295 2230 1
295 2410 1
295 2689 1
296 176 1
296 272 1
296 512 1
296 860 1
296 1112 1
296 1324 1
296 1511 1
296 1870 1
296 2027 1
296 2231 1
296 2411 1
296 2690 1
297 177 1
297 273 1
297 513 1
297 861 1
297 955 1
297 1325 1
297 1591 1
297 1871 1
297 2028 1
297 2232 1
297 2412 1
297 2691 1
298 178 1
298 274 1
298 514 1
298 862 1
298 1035 1
298 1326 1
298 1434 1
298 1872 1
298 2029 1
298 2233 1
298 2413 1
298 2692 1
299 179 1
299 275 1
299 515 1
299 863 1
299 1115 1
299 1327 1
299 1514 1
299 1873 1
299 2030 1
299 2234 1
299 2414 1
299 2693 1
300 180 1
300 276 1
300 516 1
300 864 1
300 958 1
300 1328 1
300 1594 1
300 1874 1
300 2031 1
300 2235 1
300 2415 1
300 2694 1
301 181 1
301 277 1
301 517 1
301 865 1
301 1038 1
301 1329 1
301 1437 1
301 1875 1
301 2032 1
301 2236 1
301 2416 1
301 2695 1
302 182 1
302 278 1
302 518 1
302 866 1
302 1118 1
302 1330 1
302 1517 1
302 1876 1
302 2033 1
302 2237 1
302 2417 1
302 2696 1
303 183 1
303 279 1
303 519 1
303 867 1
303 961 1
303 1331 1
303 1597 1
303 1877 1
303 2034 1
303 2238 1
303 2418 1
303 2697 1
304 184 1
304 280 1
304 520 1
304 868 1
304 1041 1
304 1332 1
304 1440 1
304 1878 1
304 2035 1
304 2239 1
304 2419 1
304 2698 1
305 185 1
305 281 1
305 521 1
305 869 1
305 1121 1
305 1333 1
305 1520 1
305 1879 1
305 2036 1
305 2240 1
305 2420 1
305 2699 1
306 186 1
306 282 1
306 522 1
306 870 1
306 964 1
306 1334 1
306 1600 1
306 1880 1
306 2037 1
306 2241 1
306 2421 1
306 2700 1
307 187 1
307 283 1
307 523 1
307 871 1
307 1044 1
307 1335 1
307 1443 1
307 1881 1
307 2038 1
307 2242 1
307 2422 1
307 2701 1
308 188 1
308 284 1
308 524 1
308 872 1
308 1124 1
308 1336 1
308 1523 1
308 1882 1
308 2039 1
308 2243 1
308 2423 1
308 2702 1
309 189 1
309 285 1
309 525 1
309 873 1
309 967 1
309 1337 1
309 1603 1
309 1883 1
309 2040 1
309 2244 1
309 2424 1
309 2703 1
310 190 1
310 286 1
310 526 1
310 874 1
310 1047 1
310 1338 1
310 1446 1
310 1884 1
310 2041 1
310 2245 1
310 2425 1
310 2704 1
311 191 1
311 287 1
311 527 1
311 875 1
311 1127 1
311 1339 1
311 1526 1
311 1885 1
311 2042 1
311 2246 1
311 2426 1
311 2705 1
312 192 1
312 288 1
312 528 1
312 876 1
312 970 1
312 1340 1
312 1606 1
312 1886 1
312 2043 1
312 2247 1
312 2427 1
312 2706 1
313 193 1
313 289 1
313 529 1
313 877 1
313 1050 1
313 1341 1
313 1449 1
313 1887 1
313 2044 1
313 2248 1
313 2428 1
313 2707 1
314 194 1
314 290 1
314 530 1
314 878 1
314 1130 1
314 1342 1
314 1529 1
314 1888 1
314 2045 1
314 2249 1
314 2429 1
314 2708 1
315 195 1
315 291 1
315 531 1
315 879 1
315 973 1
315 1343 1
315 1609 1
315 1889 1
315 2046 1
315 2250 1
315 2430 1
315 2709 1
316 196 1
316 292 1
316 532 1
316 880 1
316 1053 1
316 1344 1
316 1452 1
316 1890 1
316 2047 1
316 2251 1
316 2431 1
316 2710 1
317 197 1
317 293 1
317 533 1
317 881 1
317 1133 1
317 1345 1
317 1532 1
317 1891 1
317 2048 1
317 2252 1
317 2432 1
317 2711 1
318 198 1
318 294 1
318 534 1
318 882 1
318 976 1
318 1346 1
318 1612 1
318 1892 1
318 2049 1
318 2253 1
318 2433 1
318 2712 1
319 199 1
319 295 1
319 535 1
319 883 1
319 1056 1
319 1347 1
319 1455 1
319 1893 1
319 2050 1
319 2254 1
319 2434 1
319 2713 1
320 200 1
320 296 1
320 536 1
320 884 1
320 1136 1
320 1348 1
320 1535 1
320 1894 1
320 2051 1
320 2255 1
320 2435 1
320 2714 1
321 201 1
321 297 1
321 537 1
321 885 1
321 979 1
321 1349 1
321 1615 1
321 1895 1
321 2052 1
321 2256 1
321 2436 1
321 2715 1
322 202 1
322 298 1
322 538 1
322 886 1
322 1059 1
322 1350 1
322 1458 1
322 1896 1
322 2053 1
322 2257 1
322 2437 1
322 2716 1
323 203 1
323 299 1
323 539 1
323 887 1
323 1139 1
323 1351 1
323 1538 1
323 1660 1
323 2054 1
323 2258 1
323 2438 1
323 2717 1
324 204 1
324 300 1
324 540 1
324 888 1
324 982 1
324 1352 1
324 1618 1
324 1661 1
324 2055 1
324 2259 1
324 2439 1
324 2718 1
325 205 1
325 301 1
325 541 1
325 889 1
325 1062 1
325 1353 1
325 1461 1
325 1662 1
325 2056 1
325 2260 1
325 2440 1
325 2719 1
326 206 1
326 302 1
326 542 1
326 890 1
326 1142 1
326 1354 1
326 1541 1
326 1663 1
326 2057 1
326 2261 1
326 2441 1
326 2720 1
327 207 1
327 303 1
327 543 1
327 891 1
327 985 1
327 1355 1
327 1621 1
327 1664 1
327 2058 1
327 2262 1
327 2442 1
327 2721 1
328 208 1
328 304 1
328 544 1
328 892 1
328 1065 1
328 1356 1
328 1464 1
328 1665 1
328 2059 1
328 2263 1
328 2443 1
328 2722 1
329 209 1
329 305 1
329 545 1
329 893 1
329 1145 1
329 1357 1
329 1544 1
329 1666 1
329 2060 1
329 2264 1
329 2444 1
329 2723 1
330 210 1
330 306 1
330 546 1
330 894 1
330 988 1
330 1358 1
330 1624 1
330 1667 1
330 2061 1
330 2265 1
330 2445 1
330 2724 1
331 211 1
331 307 1
331 547 1
331 895 1
331 1068 1
331 1359 1
331 1467 1
331 1668 1
331 2062 1
331 2266 1
331 2446 1
331 2725 1
332 212 1
332 308 1
332 548 1
332 896 1
332 1148 1
332 1360 1
332 1547 1
332 1669 1
332 2063 1
332 2267 1
332 2447 1
332 2726 1
333 213 1
333 309 1
333 549 1
333 897 1
333 991 1
333 1361 1
333 1627 1
333 1670 1
333 2064 1
333 2268 1
333 2448 1
333 2727 1
334 214 1
334 310 1
334 550 1
334 898 1
334 1071 1
334 1362 1
334 1470 1
334 1671 1
334 2065 1
334 2269 1
334 2449 1
334 2728 1
335 215 1
335 311 1
335 551 1
335 899 1
335 1151 1
335 1363 1
335 1550 1
335 1672 1
335 2066 1
335 2270 1
335 2450 1
335 2729 1
336 216 1
336 312 1
336 552 1
336 900 1
336 994 1
336 1364 1
336 1630 1
336 1673 1
336 2067 1
336 2271 1
336 2451 1
336 2730 1
337 217 1
337 313 1
337 553 1
337 901 1
337 1074 1
337 1365 1
337 1473 1
337 1674 1
337 2068 1
337 2272 1
337 2452 1
337 2731 1
338 218 1
338 314 1
338 554 1
338 902 1
338 1154 1
338 1366 1
338 1553 1
338 1675 1
338 2069 1
338 2273 1
338 2453 1
338 2732 1
339 219 1
339 315 1
339 555 1
339 903 1
339 997 1
339 1367 1
339 1633 1
339 1676 1
339 2070 1
339 2274 1
339 2454 1
339 2733 1
340 220 1
340 316 1
340 556 1
340 904 1
340 1077 1
340 1368 1
340 1476 1
340 1677 1
340 2071 1
340 2275 1
340 2455 1
340 2734 1
341 221 1
341 317 1
341 557 1
341 905 1
341 1157 1
341 1369 1
341 1556 1
341 1678 1
341 2072 1
341 2276 1
341 2456 1
341 2735 1
342 222 1
342 318 1
342 558 1
342 906 1
342 1000 1
342 1370 1
342 1636 1
342 1679 1
342 2073 1
342 2277 1
342 2457 1
342 2736 1
343 223 1
343 319 1
343 559 1
343 907 1
343 1080 1
343 1371 1
343 1479 1
343 1680 1
343 2074 1
343 2278 1
343 2458 1
343 2737 1
344 224 1
344 320 1
344 560 1
344 908 1
344 1160 1
344 1372 1
344 1559 1
344 1681 1
344 2075 1
344 2279 1
344 2459 1
344 2738 1
345 225 1
345 321 1
345 561 1
345 909 1
345 1003 1
345 1373 1
345 1639 1
345 1682 1
345 2076 1
345 2280 1
345 2460 1
345 2739 1
346 226 1
346 322 1
346 562 1
346 910 1
346 1083 1
346 1374 1
346 1482 1
346 1683 1
346 2077 1
346 2281 1
346 2461 1
346 2740 1
347 227 1
347 323 1
347 563 1
347 911 1
347 1163 1
347 1375 1
347 1562 1
347 1684 1
347 2078 1
347 2282 1
347 2462 1
347 2741 1
348 228 1
348 324 1
348 564 1
348 912 1
348 1006 1
348 1376 1
348 1642 1
348 1685 1
348 2079 1
348 2283 1
348 2463 1
348 2742 1
349 229 1
349 325 1
349 565 1
349 913 1
349 1086 1
349 1377 1
349 1485 1
349 1686 1
349 2080 1
349 2284 1
349 2464 1
349 2743 1
350 230 1
350 326 1
350 566 1
350 914 1
350 1166 1
350 1378 1
350 1565 1
350 1687 1
350 2081 1
350 2285 1
350 2465 1
350 2744 1
351 231 1
351 327 1
351 567 1
351 915 1
351 1009 1
351 1379 1
351 1645 1
351 1688 1
351 2082 1
351 2286 1
351 2466 1
351 2745 1
352 232 1
352 328 1
352 568 1
352 916 1
352 1089 1
352 1380 1
352 1488 1
352 1689 1
352 2083 1
352 2287 1
352 2467 1
352 2746 1
353 233 1
353 329 1
353 569 1
353 917 1
353 1169 1
353 1381 1
353 1568 1
353 1690 1
353 2084 1
353 2288 1
353 2468 1
353 2747 1
354 234 1
354 330 1
354 570 1
354 918 1
354 1012 1
354 1382 1
354 1648 1
354 1691 1
354 2085 1
354 2289 1
354 2469 1
354 2748 1
355 235 1
355 331 1
355 571 1
355 919 1
355 1092 1
355 1383 1
355 1491 1
355 1692 1
355 2086 1
355 2290 1
355 2470 1
355 2749 1
356 236 1
356 332 1
356 572 1
356 920 1
356 1172 1
356 1384 1
356 1571 1
356 1693 1
356 2087 1
356 2291 1
356 2471 1
356 2750 1
357 237 1
357 333 1
357 573 1
357 921 1
357 1015 1
357 1385 1
357 1651 1
357 1694 1
357 2088 1
357 2292 1
357 2472 1
357 2751 1
358 1 1
358 334 1
358 574 1
358 922 1
358 1095 1
358 1386 1
358 1494 1
358 1695 1
358 2089 1
358 2293 1
358 2473 1
358 2752 1
359 2 1
359 335 1
359 575 1
359 923 1
359 1175 1
359 1387 1
359 1574 1
359 1696 1
359 2090 1
359 2294 1
359 2474 1
359 2753 1
360 3 1
360 336 1
360 576 1
360 924 1
360 1018 1
360 1388 1
360 1654 1
360 1697 1
360 2091 1
360 2295 1
360 2475 1
360 2754 1
361 4 1
361 337 1
361 577 1
361 925 1
361 1098 1
361 1389 1
361 1497 1
361 1698 1
361 2092 1
361 2296 1
361 2476 1
361 2755 1
362 5 1
362 338 1
362 578 1
362 926 1
362 1178 1
362 1390 1
362 1577 1
362 1699 1
362 2093 1
362 2297 1
362 2477 1
362 2756 1
363 6 1
363 339 1
363 579 1
363 927 1
363 1021 1
363 1391 1
363 1657 1
363 1700 1
363 2094 1
363 2298 1
363 2478 1
363 2757 1
364 7 1
364 340 1
364 580 1
364 928 1
364 1101 1
364 1392 1
364 1500 1
364 1701 1
364 2095 1
364 2299 1
364 2479 1
364 2758 1
365 8 1
365 341 1
365 581 1
365 929 1
365 1181 1
365 1393 1
365 1580 1
365 1702 1
365 2096 1
365 2300 1
365 2480 1
365 2759 1
366 9 1
366 342 1
366 582 1
366 930 1
366 1024 1
366 1394 1
366 1423 1
366 1703 1
366 2097 1
366 2301 1
366 2481 1
366 2760 1
367 10 1
367 343 1
367 583 1
367 931 1
367 1104 1
367 1395 1
367 1503 1
367 1704 1
367 2098 1
367 2302 1
367 2482 1
367 2761 1
368 11 1
368 344 1
368 584 1
368 932 1
368 1184 1
368 1396 1
368 1583 1
368 1705 1
368 2099 1
368 2303 1
368 2483 1
368 2762 1
369 12 1
369 345 1
369 585 1
369 933 1
369 1027 1
369 1397 1
369 1426 1
369 1706 1
369 2100 1
369 2304 1
369 2484 1
369 2763 1
370 13 1
370 346 1
370 586 1
370 934 1
370 1107 1
370 1398 1
370 1506 1
370 1707 1
370 2101 1
370 2305 1
370 2485 1
370 2764 1
371 14 1
371 347 1
371 587 1
371 935 1
371 950 1
371 1399 1
371 1586 1
371 1708 1
371 2102 1
371 2306 1
371 2486 1
371 2765 1
372 15 1
372 348 1
372 588 1
372 936 1
372 1030 1
372 1400 1
372 1429 1
372 1709 1
372 2103 1
372 2307 1
372 2487 1
372 2766 1
373 16 1
373 349 1
373 589 1
373 937 1
373 1110 1
373 1401 1
373 1509 1
373 1710 1
373 2104 1
373 2308 1
373 2488 1
373 2767 1
374 17 1
374 350 1
374 590 1
374 938 1
374 953 1
374 1402 1
374 1589 1
374 1711 1
374 2105 1
374 2309 1
374 2489 1
374 2768 1
375 18 1
375 351 1
375 591 1
375 939 1
375 1033 1
375 1403 1
375 1432 1
375 1712 1
375 2106 1
375 2310 1
375 2490 1
375 2769 1
376 19 1
376 352 1
376 592 1
376 940 1
376 1113 1
376 1404 1
376 1512 1
376 1713 1
376 2107 1
376 2311 1
376 2491 1
376 2770 1
377 20 1
377 353 1
377 593 1
377 941 1
377 956 1
377 1405 1
377 1592 1
377 1714 1
377 2108 1
377 2312 1
377 2492 1
377 2771 1
378 21 1
378 354 1
378 594 1
378 942 1
378 1036 1
378 1406 1
378 1435 1
378 1715 1
378 2109 1
378 2313 1
378 2493 1
378 2772 1
379 22 1
379 355 1
379 595 1
379 943 1
379 1116 1
379 1407 1
379 1515 1
379 1716 1
379 2110 1
379 2314 1
379 2494 1
379 2773 1
380 23 1
380 356 1
380 596 1
380 944 1
380 959 1
380 1408 1
380 1595 1
380 1717 1
380 2111 1
380 2315 1
380 2495 1
380 2774 1
381 24 1
381 357 1
381 597 1
381 945 1
381 1039 1
381 1409 1
381 1438 1
381 1718 1
381 2112 1
381 2316 1
381 2496 1
381 2775 1
382 25 1
382 358 1
382 598 1
382 946 1
382 1119 1
382 1410 1
382 1518 1
382 1719 1
382 2113 1
382 2317 1
382 2497 1
382 2776 1
383 26 1
383 359 1
383 599 1
383 947 1
383 962 1
383 1411 1
383 1598 1
383 1720 1
383 2114 1
383 2318 1
383 2498 1
383 2777 1
384 27 1
384 360 1
384 600 1
384 948 1
384 1042 1
384 1412 1
384 1441 1
384 1721 1
384 2115 1
384 2319 1
384 2499 1
384 2778 1
385 28 1
385 361 1
385 601 1
385 712 1
385 1122 1
385 1413 1
385 1521 1
385 1722 1
385 2116 1
385 2320 1
385 2500 1
385 2779 1
386 29 1
386 362 1
386 602 1
386 713 1
386 965 1
386 1414 1
386 1601 1
386 1723 1
386 2117 1
386 2321 1
386 2501 1
386 2780 1
387 30 1
387 363 1
387 603 1
387 714 1
387 1045 1
387 1415 1
387 1444 1
387 1724 1
387 2118 1
387 2322 1
387 2502 1
387 2781 1
388 31 1
388 364 1
388 604 1
388 715 1
388 1125 1
388 1416 1
388 1524 1
388 1725 1
388 2119 1
388 2323 1
388 2503 1
388 2782 1
389 32 1
389 365 1
389 605 1
389 716 1
389 968 1
389 1417 1
389 1604 1
389 1726 1
389 2120 1
389 2324 1
389 2504 1
389 2783 1
390 33 1
390 366 1
390 606 1
390 717 1
390 1048 1
390 1418 1
390 1447 1
390 1727 1
390 2121 1
390 2325 1
390 2505 1
390 2784 1
391 34 1
391 367 1
391 607 1
391 718 1
391 1128 1
391 1419 1
391 1527 1
391 1728 1
391 2122 1
391 2326 1
391 2506 1
391 2785 1
392 35 1
392 368 1
392 608 1
392 719 1
392 971 1
392 1420 1
392 1607 1
392 1729 1
392 2123 1
392 2327 1
392 2507 1
392 2786 1
393 36 1
393 369 1
393 609 1
393 720 1
393 1051 1
393 1421 1
393 1450 1
393 1730 1
393 2124 1
393 2328 1
393 2508 1
393 2787 1
394 37 1
394 370 1
394 610 1
394 721 1
394 1131 1
394 1422 1
394 1530 1
394 1731 1
394 2125 1
394 2329 1
394 2509 1
394 2788 1
395 38 1
395 371 1
395 611 1
395 722 1
395 974 1
395 1186 1
395 1610 1
395 1732 1
395 2126 1
395 2330 1
395 2510 1
395 2789 1
396 39 1
396 372 1
396 612 1
396 723 1
396 1054 1
396 1187 1
396 1453 1
396 1733 1
396 2127 1
396 2331 1
396 2511 1
396 2790 1
397 40 1
397 373 1
397 613 1
397 724 1
397 1134 1
397 1188 1
397 1533 1
397 1734 1
397 2128 1
397 2332 1
397 2512 1
397 2791 1
398 41 1
398 374 1
398 614 1
398 725 1
398 977 1
398 1189 1
398 1613 1
398 1735 1
398 2129 1
398 2333 1
398 2513 1
398 2792 1
399 42 1
399 375 1
399 615 1
399 726 1
399 1057 1
399 1190 1
399 1456 1
399 1736 1
399 2130 1
399 2334 1
399 2514 1
399 2793 1
400 43 1
400 376 1
400 616 1
400 727 1
400 1137 1
400 1191 1
400 1536 1
400 1737 1
400 2131 1
400 2335 1
400 2515 1
400 2794 1
401 44 1
401 377 1
401 617 1
401 728 1
401 980 1
401 1192 1
401 1616 1
401 1738 1
401 2132 1
401 2336 1
401 2516 1
401 2795 1
402 45 1
402 378 1
402 618 1
402 729 1
402 1060 1
402 1193 1
402 1459 1
402 1739 1
402 2133 1
402 2337 1
402 2517 1
402 2796 1
403 46 1
403 379 1
403 619 1
403 730 1
403 1140 1
403 1194 1
403 1539 1
403 1740 1
403 1897 1
403 2338 1
403 2518 1
403 2797 1
404 47 1
404 380 1
404 620 1
404 731 1
404 983 1
404 1195 1
404 1619 1
404 1741 1
404 1898 1
404 2339 1
404 2519 1
404 2798 1
405 48 1
405 381 1
405 621 1
405 732 1
405 1063 1
405 1196 1
405 1462 1
405 1742 1
405 1899 1
405 2340 1
405 2520 1
405 2799 1
406 49 1
406 382 1
406 622 1
406 733 1
406 1143 1
406 1197 1
406 1542 1
406 1743 1
406 1900 1
406 2341 1
406 2521 1
406 2800 1
407 50 1
407 383 1
407 623 1
407 734 1
407 986 1
407 1198 1
407 1622 1
407 1744 1
407 1901 1
407 2342 1
407 2522 1
407 2801 1
408 51 1
408 384 1
408 624 1
408 735 1
408 1066 1
408 1199 1
408 1465 1
408 1745 1
408 1902 1
408 2343 1
408 2523 1
408 2802 1
409 52 1
409 385 1
409 625 1
409 736 1
409 1146 1
409 1200 1
409 1545 1
409 1746 1
409 1903 1
409 2344 1
409 2524 1
409 2803 1
410 53 1
410 386 1
410 626 1
410 737 1
410 989 1
410 1201 1
410 1625 1
410 1747 1
410 1904 1
410 2345 1
410 2525 1
410 2804 1
411 54 1
411 387 1
411 627 1
411 738 1
411 1069 1
411 1202 1
411 1468 1
411 1748 1
411 1905 1
411 2346 1
411 2526 1
411 2805 1
412 55 1
412 388 1
412 628 1
412 739 1
412 1149 1
412 1203 1
412 1548 1
412 1749 1
412 1906 1
412 2347 1
412 2527 1
412 2806 1
413 56 1
413 389 1
413 629 1
413 740 1
413 992 1
413 1204 1
413 1628 1
413 1750 1
413 1907 1
413 2348 1
413 2528 1
413 2807 1
414 57 1
414 390 1
414 630 1
414 741 1
414 1072 1
414 1205 1
414 1471 1
414 1751 1
414 1908 1
414 2349 1
414 2529 1
414 2808 1
415 58 1
415 391 1
415 631 1
415 742 1
415 1152 1
415 1206 1
415 1551 1
415 1752 1
415 1909 1
415 2350 1
415 2530 1
415 2809 1
416 59 1
416 392 1
416 632 1
416 743 1
416 995 1
416 1207 1
416 1631 1
416 1753 1
416 1910 1
416 2351 1
416 2531 1
416 2810 1
417 60 1
417 393 1
417 633 1
417 744 1
417 1075 1
417 1208 1
417 1474 1
417 1754 1
417 1911 1
417 2352 1
417 2532 1
417 2811 1
418 61 1
418 394 1
418 634 1
418 745 1
418 1155 1
418 1209 1
418 1554 1
418 1755 1
418 1912 1
418 2353 1
418 2533 1
418 2812 1
419 62 1
419 395 1
419 635 1
419 746 1
419 998 1
419 1210 1
419 1634 1
419 1756 1
419 1913 1
419 2354 1
419 2534 1
419 2813 1
420 63 1
420 396 1
420 636 1
420 747 1
420 1078 1
420 1211 1
420 1477 1
420 1757 1
420 1914 1
420 2355 1
420 2535 1
420 2814 1
421 64 1
421 397 1
421 637 1
421 748 1
421 1158 1
421 1212 1
421 1557 1
421 1758 1
421 1915 1
421 2356 1
421 2536 1
421 2815 1
422 65 1
422 398 1
422 638 1
422 749 1
422 1001 1
422 1213 1
422 1637 1
422 1759 1
422 1916 1
422 2357 1
422 2537 1
422 2816 1
423 66 1
423 399 1
423 639 1
423 750 1
423 1081 1
423 1214 1
423 1480 1
423 1760 1
423 1917 1
423 2358 1
423 2538 1
423 2817 1
424 67 1
424 400 1
424 640 1
424 751 1
424 1161 1
424 1215 1
424 1560 1
424 1761 1
424 1918 1
424 2359 1
424 2539 1
424 2818 1
425 68 1
425 401 1
425 641 1
425 752 1
425 1004 1
425 1216 1
425 1640 1
425 1762 1
425 1919 1
425 2360 1
425 2540 1
425 2819 1
426 69 1
426 402 1
426 642 1
426 753 1
426 1084 1
426 1217 1
426 1483 1
426 1763 1
426 1920 1
426 2361 1
426 2541 1
426 2820 1
427 70 1
427 403 1
427 643 1
427 754 1
427 1164 1
427 1218 1
427 1563 1
427 1764 1
427 1921 1
427 2362 1
427 2542 1
427 2821 1
428 71 1
428 404 1
428 644 1
428 755 1
428 1007 1
428 1219 1
428 1643 1
428 1765 1
428 1922 1
428 2363 1
428 2543 1
428 2822 1
429 72 1
429 405 1
429 645 1
429 756 1
429 1087 1
429 1220 1
429 1486 1
429 1766 1
429 1923 1
429 2364 1
429 2544 1
429 2823 1
430 73 1
430 406 1
430 646 1
430 757 1
430 1167 1
430 1221 1
430 1566 1
430 1767 1
430 1924 1
430 2365 1
430 2545 1
430 2824 1
431 74 1
431 407 1
431 647 1
431 758 1
431 1010 1
431 1222 1
431 1646 1
431 1768 1
431 1925 1
431 2366 1
431 2546 1
431 2825 1
432 75 1
432 408 1
432 648 1
432 759 1
432 1090 1
432 1223 1
432 1489 1
432 1769 1
432 1926 1
432 2367 1
432 2547 1
432 2826 1
433 76 1
433 409 1
433 649 1
433 760 1
433 1170 1
433 1224 1
433 1569 1
433 1770 1
433 1927 1
433 2368 1
433 2548 1
433 2827 1
434 77 1
434 410 1
434 650 1
434 761 1
434 1013 1
434 1225 1
434 1649 1
434 1771 1
434 1928 1
434 2369 1
434 2549 1
434 2828 1
435 78 1
435 411 1
435 651 1
435 762 1
435 1093 1
435 1226 1
435 1492 1
435 1772 1
435 1929 1
435 2370 1
435 2550 1
435 2829 1
436 79 1
436 412 1
436 652 1
436 763 1
436 1173 1
436 1227 1
436 1572 1
436 1773 1
436 1930 1
436 2134 1
436 2551 1
436 2830 1
437 80 1
437 413 1
437 653 1
437 764 1
437 1016 1
437 1228 1
437 1652 1
437 1774 1
437 1931 1
437 2135 1
437 2552 1
437 2831 1
438 81 1
438 414 1
438 654 1
438 765 1
438 1096 1
438 1229 1
438 1495 1
438 1775 1
438 1932 1
438 2136 1
438 2553 1
438 2832 1
439 82 1
439 415 1
439 655 1
439 766 1
439 1176 1
439 1230 1
439 1575 1
439 1776 1
439 1933 1
439 2137 1
439 2554 1
439 2833 1
440 83 1
440 416 1
440 656 1
440 767 1
440 1019 1
440 1231 1
440 1655 1
440 1777 1
440 1934 1
440 2138 1
440 2555 1
440 2834 1
441 84 1
441 417 1
441 657 1
441 768 1
441 1099 1
441 1232 1
441 1498 1
441 1778 1
441 1935 1
441 2139 1
441 2556 1
441 2835 1
442 85 1
442 418 1
442 658 1
442 769 1
442 1179 1
442 1233 1
442 1578 1
442 1779 1
442 1936 1
442 2140 1
442 2557 1
442 2836 1
443 86 1
443 419 1
443 659 1
443 770 1
443 1022 1
443 1234 1
443 1658 1
443 1780 1
443 1937 1
443 2141 1
443 2558 1
443 2837 1
444 87 1
444 420 1
444 660 1
444 771 1
444 1102 1
444 1235 1
444 1501 1
444 1781 1
444 1938 1
444 2142 1
444 2559 1
444 2838 1
445 88 1
445 421 1
445 661 1
445 772 1
445 1182 1
445 1236 1
445 1581 1
445 1782 1
445 1939 1
445 2143 1
445 2560 1
445 2839 1
446 89 1
446 422 1
446 662 1
446 773 1
446 1025 1
446 1237 1
446 1424 1
446 1783 1
446 1940 1
446 2144 1
446 2561 1
446 2840 1
447 90 1
447 423 1
447 663 1
447 774 1
447 1105 1
447 1238 1
447 1504 1
447 1784 1
447 1941 1
447 2145 1
447 2562 1
447 2841 1
448 91 1
448 424 1
448 664 1
448 775 1
448 1185 1
448 1239 1
448 1584 1
448 1785 1
448 1942 1
448 2146 1
448 2563 1
448 2842 1
449 92 1
449 425 1
449 665 1
449 776 1
449 1028 1
449 1240 1
449 1427 1
449 1786 1
449 1943 1
449 2147 1
449 2564 1
449 2843 1
450 93 1
450 426 1
450 666 1
450 777 1
450 1108 1
450 1241 1
450 1507 1
450 1787 1
450 1944 1
450 2148 1
450 2565 1
450 2844 1
451 94 1
451 427 1
451 667 1
451 778 1
451 951 1
451 1242 1
451 1587 1
451 1788 1
451 1945 1
451 2149 1
451 2566 1
451 2608 1
452 95 1
452 428 1
452 668 1
452 779 1
452 1031 1
452 1243 1
452 1430 1
452 1789 1
452 1946 1
452 2150 1
452 2567 1
452 2609 1
453 96 1
453 429 1
453 669 1
453 780 1
453 1111 1
453 1244 1
453 1510 1
453 1790 1
453 1947 1
453 2151 1
453 2568 1
453 2610 1
454 97 1
454 430 1
454 670 1
454 781 1
454 954 1
454 1245 1
454 1590 1
454 1791 1
454 1948 1
454 2152 1
454 2569 1
454 2611 1
455 98 1
455 431 1
455 671 1
455 782 1
455 1034 1
455 1246 1
455 1433 1
455 1792 1
455 1949 1
455 2153 1
455 2570 1
455 2612 1
456 99 1
456 432 1
456 672 1
456 783 1
456 1114 1
456 1247 1
456 1513 1
456 1793 1
456 1950 1
456 2154 1
456 2571 1
456 2613 1
457 100 1
457 433 1
457 673 1
457 784 1
457 957 1
457 1248 1
457 1593 1
457 1794 1
457 1951 1
457 2155 1
457 2572 1
457 2614 1
458 101 1
458 434 1
458 674 1
458 785 1
458 1037 1
458 1249 1
458 1436 1
458 1795 1
458 1952 1
458 2156 1
458 2573 1
458 2615 1
459 102 1
459 435 1
459 675 1
459 786 1
459 1117 1
459 1250 1
459 1516 1
459 1796 1
459 1953 1
459 2157 1
459 2574 1
459 2616 1
460 103 1
460 436 1
460 676 1
460 787 1
460 960 1
460 1251 1
460 1596 1
460 1797 1
460 1954 1
460 2158 1
460 2575 1
460 2617 1
461 104 1
461 437 1
461 677 1
461 788 1
461 1040 1
461 1252 1
461 1439 1
461 1798 1
461 1955 1
461 2159 1
461 2576 1
461 2618 1
462 105 1
462 438 1
462 678 1
462 789 1
462 1120 1
462 1253 1
462 1519 1
462 1799 1
462 1956 1
462 2160 1
462 2577 1
462 2619 1
463 106 1
463 439 1
463 679 1
463 790 1
463 963 1
463 1254 1
463 1599 1
463 1800 1
463 1957 1
463 2161 1
463 2578 1
463 2620 1
464 107 1
464 440 1
464 680 1
464 791 1
464 1043 1
464 1255 1
464 1442 1
464 1801 1
464 1958 1
464 2162 1
464 2579 1
464 2621 1
465 108 1
465 441 1
465 681 1
465 792 1
465 1123 1
465 1256 1
465 1522 1
465 1802 1
465 1959 1
465 2163 1
465 2580 1
465 2622 1
466 109 1
466 442 1
466 682 1
466 793 1
466 966 1
466 1257 1
466 1602 1
466 1803 1
466 1960 1
466 2164 1
466 2581 1
466 2623 1
467 110 1
467 443 1
467 683 1
467 794 1
467 1046 1
467 1258 1
467 1445 1
467 1804 1
467 1961 1
467 2165 1
467 2582 1
467 2624 1
468 111 1
468 444 1
468 684 1
468 795 1
468 1126 1
468 1259 1
468 1525 1
468 1805 1
468 1962 1
468 2166 1
468 2583 1
468 2625 1
469 112 1
469 445 1
469 685 1
469 796 1
469 969 1
469 1260 1
469 1605 1
469 1806 1
469 1963 1
469 2167 1
469 2584 1
469 2626 1
470 113 1
470 446 1
470 686 1
470 797 1
470 1049 1
470 1261 1
470 1448 1
470 1807 1
470 1964 1
470 2168 1
470 2585 1
470 2627 1
471 114 1
471 447 1
471 687 1
471 798 1
471 1129 1
471 1262 1
471 1528 1
471 1808 1
471 1965 1
471 2169 1
471 2586 1
471 2628 1
472 115 1
472 448 1
472 688 1
472 799 1
472 972 1
472 1263 1
472 1608 1
472 1809 1
472 1966 1
472 2170 1
472 2587 1
472 2629 1
473 116 1
473 449 1
473 689 1
473 800 1
473 1052 1
473 1264 1
473 1451 1
473 1810 1
473 1967 1
473 2171 1
473 2588 1
473 2630 1
474 117 1
474 450 1
474 690 1
474 801 1
474 1132 1
474 1265 1
474 1531 1
474 1811 1
474 1968 1
474 2172 1
474 2589 1
474 2631 1
475 81 1
475 355 1
475 688 1
475 928 1
475 1039 1
475 1212 1
475 1447 1
475 1848 1
475 2049 1
475 2206 1
475 2410 1
475 2827 1
476 82 1
476 356 1
476 689 1
476 929 1
476 1040 1
476 1292 1
476 1448 1
476 1691 1
476 2050 1
476 2207 1
476 2411 1
476 2828 1
477 83 1
477 357 1
477 690 1
477 930 1
477 1041 1
477 1372 1
477 1449 1
477 1771 1
477 2051 1
477 2208 1
477 2412 1
477 2829 1
478 84 1
478 358 1
478 691 1
478 931 1
478 1042 1
478 1215 1
478 1450 1
478 1851 1
478 2052 1
478 2209 1
478 2413 1
478 2830 1
479 85 1
479 359 1
479 692 1
479 932 1
479 1043 1
479 1295 1
479 1451 1
479 1694 1
479 2053 1
479 2210 1
479 2414 1
479 2831 1
480 86 1
480 360 1
480 693 1
480 933 1
480 1044 1
480 1375 1
480 1452 1
480 1774 1
480 2054 1
480 2211 1
480 2415 1
480 2832 1
481 87 1
481 361 1
481 694 1
481 934 1
481 1045 1
481 1218 1
481 1453 1
481 1854 1
481 2055 1
481 2212 1
481 2416 1
481 2833 1
482 88 1
482 362 1
482 695 1
482 935 1
482 1046 1
482 1298 1
482 1454 1
482 1697 1
482 2056 1
482 2213 1
482 2417 1
482 2834 1
483 89 1
483 363 1
483 696 1
483 936 1
483 1047 1
483 1378 1
483 1455 1
483 1777 1
483 2057 1
483 2214 1
483 2418 1
483 2835 1
484 90 1
484 364 1
484 697 1
484 937 1
484 1048 1
484 1221 1
484 1456 1
484 1857 1
484 2058 1
484 2215 1
484 2419 1
484 2836 1
485 91 1
485 365 1
485 698 1
485 938 1
485 1049 1
485 1301 1
485 1457 1
485 1700 1
485 2059 1
485 2216 1
485 2420 1
485 2837 1
486 92 1
486 366 1
486 699 1
486 939 1
486 1050 1
486 1381 1
486 1458 1
486 1780 1
486 2060 1
486 2217 1
486 2421 1
486 2838 1
487 93 1
487 367 1
487 700 1
487 940 1
487 1051 1
487 1224 1
487 1459 1
487 1860 1
487 2061 1
487 2218 1
487 2422 1
487 2839 1
488 94 1
488 368 1
488 701 1
488 941 1
488 1052 1
488 1304 1
488 1460 1
488 1703 1
488 2062 1
488 2219 1
488 2423 1
488 2840 1
489 95 1
489 369 1
489 702 1
489 942 1
489 1053 1
489 1384 1
489 1461 1
489 1783 1
489 2063 1
489 2220 1
489 2424 1
489 2841 1
490 96 1
490 370 1
490 703 1
490 943 1
490 1054 1
490 1227 1
490 1462 1
490 1863 1
490 2064 1
490 2221 1
490 2425 1
490 2842 1
491 97 1
491 371 1
491 704 1
491 944 1
491 1055 1
491 1307 1
491 1463 1
491 1706 1
491 2065 1
491 2222 1
491 2426 1
491 2843 1
492 98 1
492 372 1
492 705 1
492 945 1
492 1056 1
492 1387 1
492 1464 1
492 1786 1
492 2066 1
492 2223 1
492 2427 1
492 2844 1
493 99 1
493 373 1
493 706 1
493 946 1
493 1057 1
493 1230 1
493 1465 1
493 1866 1
493 2067 1
493 2224 1
493 2428 1
493 2608 1
494 100 1
494 374 1
494 707 1
494 947 1
494 1058 1
494 1310 1
494 1466 1
494 1709 1
494 2068 1
494 2225 1
494 2429 1
494 2609 1
495 101 1
495 375 1
495 708 1
495 948 1
495 1059 1
495 1390 1
495 1467 1
495 1789 1
495 2069 1
495 2226 1
495 2430 1
495 2610 1
496 102 1
496 376 1
496 709 1
496 712 1
496 1060 1
496 1233 1
496 1468 1
496 1869 1
496 2070 1
496 2227 1
496 2431 1
496 2611 1
497 103 1
497 377 1
497 710 1
497 713 1
497 1061 1
497 1313 1
497 1469 1
497 1712 1
497 2071 1
497 2228 1
497 2432 1
497 2612 1
498 104 1
498 378 1
498 711 1
498 714 1
498 1062 1
498 1393 1
498 1470 1
498 1792 1
498 2072 1
498 2229 1
498 2433 1
498 2613 1
499 105 1
499 379 1
499 475 1
499 715 1
499 1063 1
499 1236 1
499 1471 1
499 1872 1
499 2073 1
499 2230 1
499 2434 1
499 2614 1
500 106 1
500 380 1
500 476 1
500 716 1
500 1064 1
500 1316 1
500 1472 1
500 1715 1
500 2074 1
500 2231 1
500 2435 1
500 2615 1
501 107 1
501 381 1
501 477 1
501 717 1
501 1065 1
501 1396 1
501 1473 1
501 1795 1
501 2075 1
501 2232 1
501 2436 1
501 2616 1
502 108 1
502 382 1
502 478 1
502 718 1
502 1066 1
502 1239 1
502 1474 1
502 1875 1
502 2076 1
502 2233 1
502 2437 1
502 2617 1
503 109 1
503 383 1
503 479 1
503 719 1
503 1067 1
503 1319 1
503 1475 1
503 1718 1
503 2077 1
503 2234 1
503 2438 1
503 2618 1
504 110 1
504 384 1
504 480 1
504 720 1
504 1068 1
504 1399 1
504 1476 1
504 1798 1
504 2078 1
504 2235 1
504 2439 1
504 2619 1
505 111 1
505 385 1
505 481 1
505 721 1
505 1069 1
505 1242 1
505 1477 1
505 1878 1
505 2079 1
505 2236 1
505 2440 1
505 2620 1
506 112 1
506 386 1
506 482 1
506 722 1
506 1070 1
506 1322 1
506 1478 1
506 1721 1
506 2080 1
506 2237 1
506 2441 1
506 2621 1
507 113 1
507 387 1
507 483 1
507 723 1
507 1071 1
507 1402 1
507 1479 1
507 1801 1
507 2081 1
507 2238 1
507 2442 1
507 2622 1
508 114 1
508 388 1
508 484 1
508 724 1
508 1072 1
508 1245 1
508 1480 1
508 1881 1
508 2082 1
508 2239 1
508 2443 1
508 2623 1
509 115 1
509 389 1
509 485 1
509 725 1
509 1073 1
509 1325 1
509 1481 1
509 1724 1
509 2083 1
509 2240 1
509 2444 1
509 2624 1
510 116 1
510 390 1
510 486 1
510 726 1
510 1074 1
510 1405 1
510 1482 1
510 1804 1
510 2084 1
510 2241 1
510 2445 1
510 2625 1
511 117 1
511 391 1
511 487 1
511 727 1
511 1075 1
511 1248 1
511 1483 1
511 1884 1
511 2085 1
511 2242 1
511 2446 1
511 2626 1
512 118 1
512 392 1
512 488 1
512 728 1
512 1076 1
512 1328 1
512 1484 1
512 1727 1
512 2086 1
512 2243 1
512 2447 1
512 2627 1
513 119 1
513 393 1
513 489 1
513 729 1
513 1077 1
513 1408 1
513 1485 1
513 1807 1
513 2087 1
513 2244 1
513 2448 1
513 2628 1
514 120 1
514 394 1
514 490 1
514 730 1
514 1078 1
514 1251 1
514 1486 1
514 1887 1
514 2088 1
514 2245 1
514 2449 1
514 2629 1
515 121 1
515 395 1
515 491 1
515 731 1
515 1079 1
515 1331 1
515 1487 1
515 1730 1
515 2089 1
515 2246 1
515 2450 1
515 2630 1
516 122 1
516 396 1
516 492 1
516 732 1
516 1080 1
516 1411 1
516 1488 1
516 1810 1
516 2090 1
516 2247 1
516 2451 1
516 2631 1
517 123 1
517 397 1
517 493 1
517 733 1
517 1081 1
517 1254 1
517 1489 1
517 1890 1
517 2091 1
517 2248 1
517 2452 1
517 2632 1
518 124 1
518 398 1
518 494 1
518 734 1
518 1082 1
518 1334 1
518 1490 1
518 1733 1
518 2092 1
518 2249 1
518 2453 1
518 2633 1
519 125 1
519 399 1
519 495 1
519 735 1
519 1083 1
519 1414 1
519 1491 1
519 1813 1
519 2093 1
519 2250 1
519 2454 1
519 2634 1
520 126 1
520 400 1
520 496 1
520 736 1
520 1084 1
520 1257 1
520 1492 1
520 1893 1
520 2094 1
520 2251 1
520 2455 1
520 2635 1
521 127 1
521 401 1
521 497 1
521 737 1
521 1085 1
521 1337 1
521 1493 1
521 1736 1
521 2095 1
521 2252 1
521 2456 1
521 2636 1
522 128 1
522 402 1
522 498 1
522 738 1
522 1086 1
522 1417 1
522 1494 1
522 1816 1
522 2096 1
522 2253 1
522 2457 1
522 2637 1
523 129 1
523 403 1
523 499 1
523 739 1
523 1087 1
523 1260 1
523 1495 1
523 1896 1
523 2097 1
523 2254 1
523 2458 1
523 2638 1
524 130 1
524 404 1
524 500 1
524 740 1
524 1088 1
524 1340 1
524 1496 1
524 1739 1
524 2098 1
524 2255 1
524 2459 1
524 2639 1
525 131 1
525 405 1
525 501 1
525 741 1
525 1089 1
525 1420 1
525 1497 1
525 1819 1
525 2099 1
525 2256 1
525 2460 1
525 2640 1
526 132 1
526 406 1
526 502 1
526 742 1
526 1090 1
526 1263 1
526 1498 1
526 1662 1
526 2100 1
526 2257 1
526 2461 1
526 2641 1
527 133 1
527 407 1
527 503 1
527 743 1
527 1091 1
527 1343 1
527 1499 1
527 1742 1
527 2101 1
527 2258 1
527 2462 1
527 2642 1
528 134 1
528 408 1
528 504 1
528 744 1
528 1092 1
528 1186 1
528 1500 1
528 1822 1
528 2102 1
528 2259 1
528 2463 1
528 2643 1
529 135 1
529 409 1
529 505 1
529 745 1
529 1093 1
529 1266 1
529 1501 1
529 1665 1
529 2103 1
529 2260 1
529 2464 1
529 2644 1
530 136 1
530 410 1
530 506 1
530 746 1
530 1094 1
530 1346 1
530 1502 1
530 1745 1
530 2104 1
530 2261 1
530 2465 1
530 2645 1
531 137 1
531 411 1
531 507 1
531 747 1
531 1095 1
531 1189 1
531 1503 1
531 1825 1
531 2105 1
531 2262 1
531 2466 1
531 2646 1
532 138 1
532 412 1
532 508 1
532 748 1
532 1096 1
532 1269 1
532 1504 1
532 1668 1
532 2106 1
532 2263 1
532 2467 1
532 2647 1
533 139 1
533 413 1
533 509 1
533 749 1
533 1097 1
533 1349 1
533 1505 1
533 1748 1
533 2107 1
533 2264 1
533 2468 1
533 2648 1
534 140 1
534 414 1
534 510 1
534 750 1
534 1098 1
534 1192 1
534 1506 1
534 1828 1
534 2108 1
534 2265 1
534 2469 1
534 2649 1
535 141 1
535 415 1
535 511 1
535 751 1
535 1099 1
535 1272 1
535 1507 1
535 1671 1
535 2109 1
535 2266 1
535 2470 1
535 2650 1
536 142 1
536 416 1
536 512 1
536 752 1
536 1100 1
536 1352 1
536 1508 1
536 1751 1
536 2110 1
536 2267 1
536 2471 1
536 2651 1
537 143 1
537 417 1
537 513 1
537 753 1
537 1101 1
537 1195 1
537 1509 1
537 1831 1
537 2111 1
537 2268 1
537 2472 1
537 2652 1
538 144 1
538 418 1
538 514 1
538 754 1
538 1102 1
538 1275 1
538 1510 1
538 1674 1
538 2112 1
538 2269 1
538 2473 1
538 2653 1
539 145 1
539 419 1
539 515 1
539 755 1
539 1103 1
539 1355 1
539 1511 1
539 1754 1
539 2113 1
539 2270 1
539 2474 1
539 2654 1
540 146 1
540 420 1
540 516 1
540 756 1
540 1104 1
540 1198 1
540 1512 1
540 1834 1
540 2114 1
540 2271 1
540 2475 1
540 2655 1
541 147 1
541 421 1
541 517 1
541 757 1
541 1105 1
541 1278 1
541 1513 1
541 1677 1
541 2115 1
541 2272 1
541 2476 1
541 2656 1
542 148 1
542 422 1
542 518 1
542 758 1
542 1106 1
542 1358 1
542 1514 1
542 1757 1
542 2116 1
542 2273 1
542 2477 1
542 2657 1
543 149 1
543 423 1
543 519 1
543 759 1
543 1107 1
543 1201 1
543 1515 1
543 1837 1
543 2117 1
543 2274 1
543 2478 1
543 2658 1
544 150 1
544 424 1
544 520 1
544 760 1
544 1108 1
544 1281 1
544 1516 1
544 1680 1
544 2118 1
544 2275 1
544 2479 1
544 2659 1
545 151 1
545 425 1
545 521 1
545 761 1
545 1109 1
545 1361 1
545 1517 1
545 1760 1
545 2119 1
545 2276 1
545 2480 1
545 2660 1
546 152 1
546 426 1
546 522 1
546 762 1
546 1110 1
546 1204 1
546 1518 1
546 1840 1
546 2120 1
546 2277 1
546 2481 1
546 2661 1
547 153 1
547 427 1
547 523 1
547 763 1
547 1111 1
547 1284 1
547 1519 1
547 1683 1
547 2121 1
547 2278 1
547 2482 1
547 2662 1
548 154 1
548 428 1
548 524 1
548 764 1
548 1112 1
548 1364 1
548 1520 1
548 1763 1
548 2122 1
548 2279 1
548 2483 1
548 2663 1
549 155 1
549 429 1
549 525 1
549 765 1
549 1113 1
549 1207 1
549 1521 1
549 1843 1
549 2123 1
549 2280 1
549 2484 1
549 2664 1
550 156 1
550 430 1
550 526 1
550 766 1
550 1114 1
550 1287 1
550 1522 1
550 1686 1
550 2124 1
550 2281 1
550 2485 1
550 2665 1
551 157 1
551 431 1
551 527 1
551 767 1
551 1115 1
551 1367 1
551 1523 1
551 1766 1
551 2125 1
551 2282 1
551 2486 1
551 2666 1
552 158 1
552 432 1
552 528 1
552 768 1
552 1116 1
552 1210 1
552 1524 1
552 1846 1
552 2126 1
552 2283 1
552 2487 1
552 2667 1
553 159 1
553 433 1
553 529 1
553 769 1
553 1117 1
553 1290 1
553 1525 1
553 1689 1
553 2127 1
553 2284 1
553 2488 1
553 2668 1
554 160 1
554 434 1
554 530 1
554 770 1
554 1118 1
554 1370 1
554 1526 1
554 1769 1
554 2128 1
554 2285 1
554 2489 1
554 2669 1
555 161 1
555 435 1
555 531 1
555 771 1
555 1119 1
555 1213 1
555 1527 1
555 1849 1
555 2129 1
555 2286 1
555 2490 1
555 2670 1
556 162 1
556 436 1
556 532 1
556 772 1
556 1120 1
556 1293 1
556 1528 1
556 1692 1
556 2130 1
556 2287 1
556 2491 1
556 2671 1
557 163 1
557 437 1
557 533 1
557 773 1
557 1121 1
557 1373 1
557 1529 1
557 1772 1
557 2131 1
557 2288 1
557 2492 1
557 2672 1
558 164 1
558 438 1
558 534 1
558 774 1
558 1122 1
558 1216 1
558 1530 1
558 1852 1
558 2132 1
558 2289 1
558 2493 1
558 2673 1
559 165 1
559 439 1
559 535 1
559 775 1
559 1123 1
559 1296 1
559 1531 1
559 1695 1
559 2133 1
559 2290 1
559 2494 1
559 2674 1
560 166 1
560 440 1
560 536 1
560 776 1
560 1124 1
560 1376 1
560 1532 1
560 1775 1
560 1897 1
560 2291 1
560 2495 1
560 2675 1
561 167 1
561 441 1
561 537 1
561 777 1
561 1125 1
561 1219 1
561 1533 1
561 1855 1
561 1898 1
561 2292 1
561 2496 1
561 2676 1
562 168 1
562 442 1
562 538 1
562 778 1
562 1126 1
562 1299 1
562 1534 1
562 1698 1
562 1899 1
562 2293 1
562 2497 1
562 2677 1
563 169 1
563 443 1
563 539 1
563 779 1
563 1127 1
563 1379 1
563 1535 1
563 1778 1
563 1900 1
563 2294 1
563 2498 1
563 2678 1
564 170 1
564 444 1
564 540 1
564 780 1
564 1128 1
564 1222 1
564 1536 1
564 1858 1
564 1901 1
564 2295 1
564 2499 1
564 2679 1
565 171 1
565 445 1
565 541 1
565 781 1
565 1129 1
565 1302 1
565 1537 1
565 1701 1
565 1902 1
565 2296 1
565 2500 1
565 2680 1
566 172 1
566 446 1
566 542 1
566 782 1
566 1130 1
566 1382 1
566 1538 1
566 1781 1
566 1903 1
566 2297 1
566 2501 1
566 2681 1
567 173 1
567 447 1
567 543 1
567 783 1
567 1131 1
567 1225 1
567 1539 1
567 1861 1
567 1904 1
567 2298 1
567 2502 1
567 2682 1
568 174 1
568 448 1
568 544 1
568 784 1
568 1132 1
568 1305 1
568 1540 1
568 1704 1
568 1905 1
568 2299 1
568 2503 1
568 2683 1
569 175 1
569 449 1
569 545 1
569 785 1
569 1133 1
569 1385 1
569 1541 1
569 1784 1
569 1906 1
569 2300 1
569 2504 1
569 2684 1
570 176 1
570 450 1
570 546 1
570 786 1
570 1134 1
570 1228 1
570 1542 1
570 1864 1
570 1907 1
570 2301 1
570 2505 1
570 2685 1
571 177 1
571 451 1
571 547 1
571 787 1
571 1135 1
571 1308 1
571 1543 1
571 1707 1
571 1908 1
571 2302 1
571 2506 1
571 2686 1
572 178 1
572 452 1
572 548 1
572 788 1
572 1136 1
572 1388 1
572 1544 1
572 1787 1
572 1909 1
572 2303 1
572 2507 1
572 2687 1
573 179 1
573 453 1
573 549 1
573 789 1
573 1137 1
573 1231 1
573 1545 1
573 1867 1
573 1910 1
573 2304 1
573 2508 1
573 2688 1
574 180 1
574 454 1
574 550 1
574 790 1
574 1138 1
574 1311 1
574 1546 1
574 1710 1
574 1911 1
574 2305 1
574 2509 1
574 2689 1
575 181 1
575 455 1
575 551 1
575 791 1
575 1139 1
575 1391 1
575 1547 1
575 1790 1
575 1912 1
575 2306 1
575 2510 1
575 2690 1
576 182 1
576 456 1
576 552 1
576 792 1
576 1140 1
576 1234 1
576 1548 1
576 1870 1
576 1913 1
576 2307 1
576 2511 1
576 2691 1
577 183 1
577 457 1
577 553 1
577 793 1
577 1141 1
577 1314 1
577 1549 1
577 1713 1
577 1914 1
577 2308 1
577 2512 1
577 2692 1
578 184 1
578 458 1
578 554 1
578 794 1
578 1142 1
578 1394 1
578 1550 1
578 1793 1
578 1915 1
578 2309 1
578 2513 1
578 2693 1
579 185 1
579 459 1
579 555 1
579 795 1
579 1143 1
579 1237 1
579 1551 1
579 1873 1
579 1916 1
579 2310 1
579 2514 1
579 2694 1
580 186 1
580 460 1
580 556 1
580 796 1
580 1144 1
580 1317 1
580 1552 1
580 1716 1
580 1917 1
580 2311 1
580 2515 1
580 2695 1
581 187 1
581 461 1
581 557 1
581 797 1
581 1145 1
581 1397 1
581 1553 1
581 1796 1
581 1918 1
581 2312 1
581 2516 1
581 2696 1
582 188 1
582 462 1
582 558 1
582 798 1
582 1146 1
582 1240 1
582 1554 1
582 1876 1
582 1919 1
582 2313 1
582 2517 1
582 2697 1
583 189 1
583 463 1
583 559 1
583 799 1
583 1147 1
583 1320 1
583 1555 1
583 1719 1
583 1920 1
583 2314 1
583 2518 1
583 2698 1
584 190 1
584 464 1
584 560 1
584 800 1
584 1148 1
584 1400 1
584 1556 1
584 1799 1
584 1921 1
584 2315 1
584 2519 1
584 2699 1
585 191 1
585 465 1
585 561 1
585 801 1
585 1149 1
585 1243 1
585 1557 1
585 1879 1
585 1922 1
585 2316 1
585 2520 1
585 2700 1
586 192 1
586 466 1
586 562 1
586 802 1
586 1150 1
586 1323 1
586 1558 1
586 1722 1
586 1923 1
586 2317 1
586 2521 1
586 2701 1
587 193 1
587 467 1
587 563 1
587 803 1
587 1151 1
587 1403 1
587 1559 1
587 1802 1
587 1924 1
587 2318 1
587 2522 1
587 2702 1
588 194 1
588 468 1
588 564 1
588 804 1
588 1152 1
588 1246 1
588 1560 1
588 1882 1
588 1925 1
588 2319 1
588 2523 1
588 2703 1
589 195 1
589 469 1
589 565 1
589 805 1
589 1153 1
589 1326 1
589 1561 1
589 1725 1
589 1926 1
589 2320 1
589 2524 1
589 2704 1
590 196 1
590 470 1
590 566 1
590 806 1
590 1154 1
590 1406 1
590 1562 1
590 1805 1
590 1927 1
590 2321 1
590 2525 1
590 2705 1
591 197 1
591 471 1
591 567 1
591 807 1
591 1155 1
591 1249 1
591 1563 1
591 1885 1
591 1928 1
591 2322 1
591 2526 1
591 2706 1
592 198 1
592 472 1
592 568 1
592 808 1
592 1156 1
592 1329 1
592 1564 1
592 1728 1
592 1929 1
592 2323 1
592 2527 1
592 2707 1
593 199 1
593 473 1
593 569 1
593 809 1
593 1157 1
593 1409 1
593 1565 1
593 1808 1
593 1930 1
593 2324 1
593 2528 1
593 2708 1
594 200 1
594 474 1
594 570 1
594 810 1
594 1158 1
594 1252 1
594 1566 1
594 1888 1
594 1931 1
594 2325 1
594 2529 1
594 2709 1
595 201 1
595 238 1
595 571 1
595 811 1
595 1159 1
595 1332 1
595 1567 1
595 1731 1
595 1932 1
595 2326 1
595 2530 1
595 2710 1
596 202 1
596 239 1
596 572 1
596 812 1
596 1160 1
596 1412 1
596 1568 1
596 1811 1
596 1933 1
596 2327 1
596 2531 1
596 2711 1
597 203 1
597 240 1
597 573 1
597 813 1
597 1161 1
597 1255 1
597 1569 1
597 1891 1
597 1934 1
597 2328 1
597 2532 1
597 2712 1
598 204 1
598 241 1
598 574 1
598 814 1
598 1162 1
598 1335 1
598 1570 1
598 1734 1
598 1935 1
598 2329 1
598 2533 1
598 2713 1
599 205 1
599 242 1
599 575 1
599 815 1
599 1163 1
599 1415 1
599 1571 1
599 1814 1
599 1936 1
599 2330 1
599 2534 1
599 2714 1
600 206 1
600 243 1
600 576 1
600 816 1
600 1164 1
600 1258 1
600 1572 1
600 1894 1
600 1937 1
600 2331 1
600 2535 1
600 2715 1
601 207 1
601 244 1
601 577 1
601 817 1
601 1165 1
601 1338 1
601 1573 1
601 1737 1
601 1938 1
601 2332 1
601 2536 1
601 2716 1
602 208 1
602 245 1
602 578 1
602 818 1
602 1166 1
602 1418 1
602 1574 1
602 1817 1
602 1939 1
602 2333 1
602 2537 1
602 2717 1
603 209 1
603 246 1
603 579 1
603 819 1
603 1167 1
603 1261 1
603 1575 1
603 1660 1
603 1940 1
603 2334 1
603 2538 1
603 2718 1
604 210 1
604 247 1
604 580 1
604 820 1
604 1168 1
604 1341 1
604 1576 1
604 1740 1
604 1941 1
604 2335 1
604 2539 1
604 2719 1
605 211 1
605 248 1
605 581 1
605 821 1
605 1169 1
605 1421 1
605 1577 1
605 1820 1
605 1942 1
605 2336 1
605 2540 1
605 2720 1
606 212 1
606 249 1
606 582 1
606 822 1
606 1170 1
606 1264 1
606 1578 1
606 1663 1
606 1943 1
606 2337 1
606 2541 1
606 2721 1
607 213 1
607 250 1
607 583 1
607 823 1
607 1171 1
607 1344 1
607 1579 1
607 1743 1
607 1944 1
607 2338 1
607 2542 1
607 2722 1
608 214 1
608 251 1
608 584 1
608 824 1
608 1172 1
608 1187 1
608 1580 1
608 1823 1
608 1945 1
608 2339 1
608 2543 1
608 2723 1
609 215 1
609 252 1
609 585 1
609 825 1
609 1173 1
609 1267 1
609 1581 1
609 1666 1
609 1946 1
609 2340 1
609 2544 1
609 2724 1
610 216 1
610 253 1
610 586 1
610 826 1
610 1174 1
610 1347 1
610 1582 1
610 1746 1
610 1947 1
610 2341 1
610 2545 1
610 2725 1
611 217 1
611 254 1
611 587 1
611 827 1
611 1175 1
611 1190 1
611 1583 1
611 1826 1
611 1948 1
611 2342 1
611 2546 1
611 2726 1
612 218 1
612 255 1
612 588 1
612 828 1
612 1176 1
612 1270 1
612 1584 1
612 1669 1
612 1949 1
612 2343 1
612 2547 1
612 2727 1
613 219 1
613 256 1
613 589 1
613 829 1
613 1177 1
613 1350 1
613 1585 1
613 1749 1
613 1950 1
613 2344 1
613 2548 1
613 2728 1
614 220 1
614 257 1
614 590 1
614 830 1
614 1178 1
614 1193 1
614 1586 1
614 1829 1
614 1951 1
614 2345 1
614 2549 1
614 2729 1
615 221 1
615 258 1
615 591 1
615 831 1
615 1179 1
615 1273 1
615 1587 1
615 1672 1
615 1952 1
615 2346 1
615 2550 1
615 2730 1
616 222 1
616 259 1
616 592 1
616 832 1
616 1180 1
616 1353 1
616 1588 1
616 1752 1
616 1953 1
616 2347 1
616 2551 1
616 2731 1
617 223 1
617 260 1
617 593 1
617 833 1
617 1181 1
617 1196 1
617 1589 1
617 1832 1
617 1954 1
617 2348 1
617 2552 1
617 2732 1
618 224 1
618 261 1
618 594 1
618 834 1
618 1182 1
618 1276 1
618 1590 1
618 1675 1
618 1955 1
618 2349 1
618 2553 1
618 2733 1
619 225 1
619 262 1
619 595 1
619 835 1
619 1183 1
619 1356 1
619 1591 1
619 1755 1
619 1956 1
619 2350 1
619 2554 1
619 2734 1
620 226 1
620 263 1
620 596 1
620 836 1
620 1184 1
620 1199 1
620 1592 1
620 1835 1
620 1957 1
620 2351 1
620 2555 1
620 2735 1
621 227 1
621 264 1
621 597 1
621 837 1
621 1185 1
621 1279 1
621 1593 1
621 1678 1
621 1958 1
621 2352 1
621 2556 1
621 2736 1
622 228 1
622 265 1
622 598 1
622 838 1
622 949 1
622 1359 1
622 1594 1
622 1758 1
622 1959 1
622 2353 1
622 2557 1
622 2737 1
623 229 1
623 266 1
623 599 1
623 839 1
623 950 1
623 1202 1
623 1595 1
623 1838 1
623 1960 1
623 2354 1
623 2558 1
623 2738 1
624 230 1
624 267 1
624 600 1
624 840 1
624 951 1
624 1282 1
624 1596 1
624 1681 1
624 1961 1
624 2355 1
624 2559 1
624 2739 1
625 231 1
625 268 1
625 601 1
625 841 1
625 952 1
625 1362 1
625 1597 1
625 1761 1
625 1962 1
625 2356 1
625 2560 1
625 2740 1
626 232 1
626 269 1
626 602 1
626 842 1
626 953 1
626 1205 1
626 1598 1
626 1841 1
626 1963 1
626 2357 1
626 2561 1
626 2741 1
627 233 1
627 270 1
627 603 1
627 843 1
627 954 1
627 1285 1
627 1599 1
627 1684 1
627 1964 1
627 2358 1
627 2562 1
627 2742 1
628 234 1
628 271 1
628 604 1
628 844 1
628 955 1
628 1365 1
628 1600 1
628 1764 1
628 1965 1
628 2359 1
628 2563 1
628 2743 1
629 235 1
629 272 1
629 605 1
629 845 1
629 956 1
629 1208 1
629 1601 1
629 1844 1
629 1966 1
629 2360 1
629 2564 1
629 2744 1
630 236 1
630 273 1
630 606 1
630 846 1
630 957 1
630 1288 1
630 1602 1
630 1687 1
630 1967 1
630 2361 1
630 2565 1
630 2745 1
631 237 1
631 274 1
631 607 1
631 847 1
631 958 1
631 1368 1
631 1603 1
631 1767 1
631 1968 1
631 2362 1
631 2566 1
631 2746 1
632 1 1
632 275 1
632 608 1
632 848 1
632 959 1
632 1211 1
632 1604 1
632 1847 1
632 1969 1
632 2363 1
632 2567 1
632 2747 1
633 2 1
633 276 1
633 609 1
633 849 1
633 960 1
633 1291 1
633 1605 1
633 1690 1
633 1970 1
633 2364 1
633 2568 1
633 2748 1
634 3 1
634 277 1
634 610 1
634 850 1
634 961 1
634 1371 1
634 1606 1
634 1770 1
634 1971 1
634 2365 1
634 2569 1
634 2749 1
635 4 1
635 278 1
635 611 1
635 851 1
635 962 1
635 1214 1
635 1607 1
635 1850 1
635 1972 1
635 2366 1
635 2570 1
635 2750 1
636 5 1
636 279 1
636 612 1
636 852 1
636 963 1
636 1294 1
636 1608 1
636 1693 1
636 1973 1
636 2367 1
636 2571 1
636 2751 1
637 6 1
637 280 1
637 613 1
637 853 1
637 964 1
637 1374 1
637 1609 1
637 1773 1
637 1974 1
637 2368 1
637 2572 1
637 2752 1
638 7 1
638 281 1
638 614 1
638 854 1
638 965 1
638 1217 1
638 1610 1
638 1853 1
638 1975 1
638 2369 1
638 2573 1
638 2753 1
639 8 1
639 282 1
639 615 1
639 855 1
639 966 1
639 1297 1
639 1611 1
639 1696 1
639 1976 1
639 2370 1
639 2574 1
639 2754 1
640 9 1
640 283 1
640 616 1
640 856 1
640 967 1
640 1377 1
640 1612 1
640 1776 1
640 1977 1
640 2134 1
640 2575 1
640 2755 1
641 10 1
641 284 1
641 617 1
641 857 1
641 968 1
641 1220 1
641 1613 1
641 1856 1
641 1978 1
641 2135 1
641 2576 1
641 2756 1
642 11 1
642 285 1
642 618 1
642 858 1
642 969 1
642 1300 1
642 1614 1
642 1699 1
642 1979 1
642 2136 1
642 2577 1
642 2757 1
643 12 1
643 286 1
643 619 1
643 859 1
643 970 1
643 1380 1
643 1615 1
643 1779 1
643 1980 1
643 2137 1
643 2578 1
643 2758 1
644 13 1
644 287 1
644 620 1
644 860 1
644 971 1
644 1223 1
644 1616 1
644 1859 1
644 1981 1
644 2138 1
644 2579 1
644 2759 1
645 14 1
645 288 1
645 621 1
645 861 1
645 972 1
645 1303 1
645 1617 1
645 1702 1
645 1982 1
645 2139 1
645 2580 1
645 2760 1
646 15 1
646 289 1
646 622 1
646 862 1
646 973 1
646 1383 1
646 1618 1
646 1782 1
646 1983 1
646 2140 1
646 2581 1
646 2761 1
647 16 1
647 290 1
647 623 1
647 863 1
647 974 1
647 1226 1
647 1619 1
647 1862 1
647 1984 1
647 2141 1
647 2582 1
647 2762 1
648 17 1
648 291 1
648 624 1
648 864 1
648 975 1
648 1306 1
648 1620 1
648 1705 1
648 1985 1
648 2142 1
648 2583 1
648 2763 1
649 18 1
649 292 1
649 625 1
649 865 1
649 976 1
649 1386 1
649 1621 1
649 1785 1
649 1986 1
649 2143 1
649 2584 1
649 2764 1
650 19 1
650 293 1
650 626 1
650 866 1
650 977 1
650 1229 1
650 1622 1
650 1865 1
650 1987 1
650 2144 1
650 2585 1
650 2765 1
651 20 1
651 294 1
651 627 1
651 867 1
651 978 1
651 1309 1
651 1623 1
651 1708 1
651 1988 1
651 2145 1
651 2586 1
651 2766 1
652 21 1
652 295 1
652 628 1
652 868 1
652 979 1
652 1389 1
652 1624 1
652 1788 1
652 1989 1
652 2146 1
652 2587 1
652 2767 1
653 22 1
653 296 1
653 629 1
653 869 1
653 980 1
653 1232 1
653 1625 1
653 1868 1
653 1990 1
653 2147 1
653 2588 1
653 2768 1
654 23 1
654 297 1
654 630 1
654 870 1
654 981 1
654 1312 1
654 1626 1
654 1711 1
654 1991 1
654 2148 1
654 2589 1
654 2769 1
655 24 1
655 298 1
655 631 1
655 871 1
655 982 1
655 1392 1
655 1627 1
655 1791 1
655 1992 1
655 2149 1
655 2590 1
655 2770 1
656 25 1
656 299 1
656 632 1
656 872 1
656 983 1
656 1235 1
656 1628 1
656 1871 1
656 1993 1
656 2150 1
656 2591 1
656 2771 1
657 26 1
657 300 1
657 633 1
657 873 1
657 984 1
657 1315 1
657 1629 1
657 1714 1
657 1994 1
657 2151 1
657 2592 1
657 2772 1
658 27 1
658 301 1
658 634 1
658 874 1
658 985 1
658 1395 1
658 1630 1
658 1794 1
658 1995 1
658 2152 1
658 2593 1
658 2773 1
659 28 1
659 302 1
659 635 1
659 875 1
659 986 1
659 1238 1
659 1631 1
659 1874 1
659 1996 1
659 2153 1
659 2594 1
659 2774 1
660 29 1
660 303 1
660 636 1
660 876 1
660 987 1
660 1318 1
660 1632 1
660 1717 1
660 1997 1
660 2154 1
660 2595 1
660 2775 1
661 30 1
661 304 1
661 637 1
661 877 1
661 988 1
661 1398 1
661 1633 1
661 1797 1
661 1998 1
661 2155 1
661 2596 1
661 2776 1
662 31 1
662 305 1
662 638 1
662 878 1
662 989 1
662 1241 1
662 1634 1
662 1877 1
662 1999 1
662 2156 1
662 2597 1
662 2777 1
663 32 1
663 306 1
663 639 1
663 879 1
663 990 1
663 1321 1
663 1635 1
663 1720 1
663 2000 1
663 2157 1
663 2598 1
663 2778 1
664 33 1
664 307 1
664 640 1
664 880 1
664 991 1
664 1401 1
664 1636 1
664 1800 1
664 2001 1
664 2158 1
664 2599 1
664 2779 1
665 34 1
665 308 1
665 641 1
665 881 1
665 992 1
665 1244 1
665 1637 1
665 1880 1
665 2002 1
665 2159 1
665 2600 1
665 2780 1
666 35 1
666 309 1
666 642 1
666 882 1
666 993 1
666 1324 1
666 1638 1
666 1723 1
666 2003 1
666 2160 1
666 2601 1
666 2781 1
667 36 1
667 310 1
667 643 1
667 883 1
667 994 1
667 1404 1
667 1639 1
667 1803 1
667 2004 1
667 2161 1
667 2602 1
667 2782 1
668 37 1
668 311 1
668 644 1
668 884 1
668 995 1
668 1247 1
668 1640 1
668 1883 1
668 2005 1
668 2162 1
668 2603 1
668 2783 1
669 38 1
669 312 1
669 645 1
669 885 1
669 996 1
669 1327 1
669 1641 1
669 1726 1
669 2006 1
669 2163 1
669 2604 1
669 2784 1
670 39 1
670 313 1
670 646 1
670 886 1
670 997 1
670 1407 1
670 1642 1
670 1806 1
670 2007 1
670 2164 1
670 2605 1
670 2785 1
671 40 1
671 314 1
671 647 1
671 887 1
671 998 1
671 1250 1
671 1643 1
671 1886 1
671 2008 1
671 2165 1
671 2606 1
671 2786 1
672 41 1
672 315 1
672 648 1
672 888 1
672 999 1
672 1330 1
672 1644 1
672 1729 1
672 2009 1
672 2166 1
672 2607 1
672 2787 1
673 42 1
673 316 1
673 649 1
673 889 1
673 1000 1
673 1410 1
673 1645 1
673 1809 1
673 2010 1
673 2167 1
673 2371 1
673 2788 1
674 43 1
674 317 1
674 650 1
674 890 1
674 1001 1
674 1253 1
674 1646 1
674 1889 1
674 2011 1
674 2168 1
674 2372 1
674 2789 1
675 44 1
675 318 1
675 651 1
675 891 1
675 1002 1
675 1333 1
675 1647 1
675 1732 1
675 2012 1
675 2169 1
675 2373 1
675 2790 1
676 45 1
676 319 1
676 652 1
676 892 1
676 1003 1
676 1413 1
676 1648 1
676 1812 1
676 2013 1
676 2170 1
676 2374 1
676 2791 1
677 46 1
677 320 1
677 653 1
677 893 1
677 1004 1
677 1256 1
677 1649 1
677 1892 1
677 2014 1
677 2171 1
677 2375 1
677 2792 1
678 47 1
678 321 1
678 654 1
678 894 1
678 1005 1
678 1336 1
678 1650 1
678 1735 1
678 2015 1
678 2172 1
678 2376 1
678 2793 1
679 48 1
679 322 1
679 655 1
679 895 1
679 1006 1
679 1416 1
679 1651 1
679 1815 1
679 2016 1
679 2173 1
679 2377 1
679 2794 1
680 49 1
680 323 1
680 656 1
680 896 1
680 1007 1
680 1259 1
680 1652 1
680 1895 1
680 2017 1
680 2174 1
680 2378 1
680 2795 1
681 50 1
681 324 1
681 657 1
681 897 1
681 1008 1
681 1339 1
681 1653 1
681 1738 1
681 2018 1
681 2175 1
681 2379 1
681 2796 1
682 51 1
682 325 1
682 658 1
682 898 1
682 1009 1
682 1419 1
682 1654 1
682 1818 1
682 2019 1
682 2176 1
682 2380 1
682 2797 1
683 52 1
683 326 1
683 659 1
683 899 1
683 1010 1
683 1262 1
683 1655 1
683 1661 1
683 2020 1
683 2177 1
683 2381 1
683 2798 1
684 53 1
684 327 1
684 660 1
684 900 1
684 1011 1
684 1342 1
684 1656 1
684 1741 1
684 2021 1
684 2178 1
684 2382 1
684 2799 1
685 54 1
685 328 1
685 661 1
685 901 1
685 1012 1
685 1422 1
685 1657 1
685 1821 1
685 2022 1
685 2179 1
685 2383 1
685 2800 1
686 55 1
686 329 1
686 662 1
686 902 1
686 1013 1
686 1265 1
686 1658 1
686 1664 1
686 2023 1
686 2180 1
686 2384 1
686 2801 1
687 56 1
687 330 1
687 663 1
687 903 1
687 1014 1
687 1345 1
687 1659 1
687 1744 1
687 2024 1
687 2181 1
687 2385 1
687 2802 1
688 57 1
688 331 1
688 664 1
688 904 1
688 1015 1
688 1188 1
688 1423 1
688 1824 1
688 2025 1
688 2182 1
688 2386 1
688 2803 1
689 58 1
689 332 1
689 665 1
689 905 1
689 1016 1
689 1268 1
689 1424 1
689 1667 1
689 2026 1
689 2183 1
689 2387 1
689 2804 1
690 59 1
690 333 1
690 666 1
690 906 1
690 1017 1
690 1348 1
690 1425 1
690 1747 1
690 2027 1
690 2184 1
690 2388 1
690 2805 1
691 60 1
691 334 1
691 667 1
691 907 1
691 1018 1
691 1191 1
691 1426 1
691 1827 1
691 2028 1
691 2185 1
691 2389 1
691 2806 1
692 61 1
692 335 1
692 668 1
692 908 1
692 1019 1
692 1271 1
692 1427 1
692 1670 1
692 2029 1
692 2186 1
692 2390 1
692 2807 1
693 62 1
693 336 1
693 669 1
693 909 1
693 1020 1
693 1351 1
693 1428 1
693 1750 1
693 2030 1
693 2187 1
693 2391 1
693 2808 1
694 63 1
694 337 1
694 670 1
694 910 1
694 1021 1
694 1194 1
694 1429 1
694 1830 1
694 2031 1
694 2188 1
694 2392 1
694 2809 1
695 64 1
695 338 1
695 671 1
695 911 1
695 1022 1
695 1274 1
695 1430 1
695 1673 1
695 2032 1
695 2189 1
695 2393 1
695 2810 1
696 65 1
696 339 1
696 672 1
696 912 1
696 1023 1
696 1354 1
696 1431 1
696 1753 1
696 2033 1
696 2190 1
696 2394 1
696 2811 1
697 66 1
697 340 1
697 673 1
697 913 1
697 1024 1
697 1197 1
697 1432 1
697 1833 1
697 2034 1
697 2191 1
697 2395 1
697 2812 1
698 67 1
698 341 1
698 674 1
698 914 1
698 1025 1
698 1277 1
698 1433 1
698 1676 1
698 2035 1
698 2192 1
698 2396 1
698 2813 1
699 68 1
699 342 1
699 675 1
699 915 1
699 1026 1
699 1357 1
699 1434 1
699 1756 1
699 2036 1
699 2193 1
699 2397 1
699 2814 1
700 69 1
700 343 1
700 676 1
700 916 1
700 1027 1
700 1200 1
700 1435 1
700 1836 1
700 2037 1
700 2194 1
700 2398 1
700 2815 1
701 70 1
701 344 1
701 677 1
701 917 1
701 1028 1
701 1280 1
701 1436 1
701 1679 1
701 2038 1
701 2195 1
701 2399 1
701 2816 1
702 71 1
702 345 1
702 678 1
702 918 1
702 1029 1
702 1360 1
702 1437 1
702 1759 1
702 2039 1
702 2196 1
702 2400 1
702 2817 1
703 72 1
703 346 1
703 679 1
703 919 1
703 1030 1
703 1203 1
703 1438 1
703 1839 1
703 2040 1
703 2197 1
703 2401 1
703 2818 1
704 73 1
704 347 1
704 680 1
704 920 1
704 1031 1
704 1283 1
704 1439 1
704 1682 1
704 2041 1
704 2198 1
704 2402 1
704 2819 1
705 74 1
705 348 1
705 681 1
705 921 1
705 1032 1
705 1363 1
705 1440 1
705 1762 1
705 2042 1
705 2199 1
705 2403 1
705 2820 1
706 75 1
706 349 1
706 682 1
706 922 1
706 1033 1
706 1206 1
706 1441 1
706 1842 1
706 2043 1
706 2200 1
706 2404 1
706 2821 1
707 76 1
707 350 1
707 683 1
707 923 1
707 1034 1
707 1286 1
707 1442 1
707 1685 1
707 2044 1
707 2201 1
707 2405 1
707 2822 1
708 77 1
708 351 1
708 684 1
708 924 1
708 1035 1
708 1366 1
708 1443 1
708 1765 1
708 2045 1
708 2202 1
708 2406 1
708 2823 1
709 78 1
709 352 1
709 685 1
709 925 1
709 1036 1
709 1209 1
709 1444 1
709 1845 1
709 2046 1
709 2203 1
709 2407 1
709 2824 1
710 79 1
710 353 1
710 686 1
710 926 1
710 1037 1
710 1289 1
710 1445 1
710 1688 1
710 2047 1
710 2204 1
710 2408 1
710 2825 1
711 80 1
711 354 1
711 687 1
711 927 1
711 1038 1
711 1369 1
711 1446 1
711 1768 1
711 2048 1
711 2205 1
711 2409 1
711 2826 1
