%%MatrixMarket matrix coordinate integer general
%
801 3204 9612
1 194 1
1 282 1
1 682 1
1 1060 1
1 1081 1
1 1579 1
1 1723 1
1 1930 1
1 2369 1
1 2454 1
1 2767 1
1 2953 1
2 195 1
2 461 1
2 683 1
2 1061 1
2 1082 1
2 1580 1
2 1724 1
2 1931 1
2 2370 1
2 2633 1
2 2768 1
2 2954 1
3 196 1
3 373 1
3 684 1
3 1062 1
3 1083 1
3 1581 1
3 1725 1
3 1932 1
3 2371 1
3 2545 1
3 2769 1
3 2955 1
4 197 1
4 285 1
4 685 1
4 1063 1
4 1084 1
4 1582 1
4 1726 1
4 1933 1
4 2372 1
4 2457 1
4 2770 1
4 2956 1
5 198 1
5 464 1
5 686 1
5 1064 1
5 1085 1
5 1583 1
5 1727 1
5 1934 1
5 2373 1
5 2636 1
5 2771 1
5 2957 1
6 199 1
6 376 1
6 687 1
6 1065 1
6 1086 1
6 1584 1
6 1728 1
6 1935 1
6 2374 1
6 2548 1
6 2772 1
6 2958 1
7 200 1
7 288 1
7 688 1
7 1066 1
7 1087 1
7 1585 1
7 1729 1
7 1936 1
7 2375 1
7 2460 1
7 2773 1
7 2959 1
8 201 1
8 467 1
8 689 1
8 1067 1
8 1088 1
8 1586 1
8 1730 1
8 1937 1
8 2376 1
8 2639 1
8 2774 1
8 2960 1
9 202 1
9 379 1
9 690 1
9 1068 1
9 1089 1
9 1587 1
9 1731 1
9 1938 1
9 2377 1
9 2551 1
9 2775 1
9 2961 1
10 203 1
10 291 1
10 691 1
10 802 1
10 1090 1
10 1588 1
10 1732 1
10 1939 1
10 2378 1
10 2463 1
10 2776 1
10 2962 1
11 204 1
11 470 1
11 692 1
11 803 1
11 1091 1
11 1589 1
11 1733 1
11 1940 1
11 2379 1
11 2642 1
11 2777 1
11 2963 1
12 205 1
12 382 1
12 693 1
12 804 1
12 1092 1
12 1590 1
12 1734 1
12 1941 1
12 2380 1
12 2554 1
12 2778 1
12 2964 1
13 206 1
13 294 1
13 694 1
13 805 1
13 1093 1
13 1591 1
13 1735 1
13 1942 1
13 2381 1
13 2466 1
13 2779 1
13 2965 1
14 207 1
14 473 1
14 695 1
14 806 1
14 1094 1
14 1592 1
14 1736 1
14 1943 1
14 2382 1
14 2645 1
14 2780 1
14 2966 1
15 208 1
15 385 1
15 696 1
15 807 1
15 1095 1
15 1593 1
15 1737 1
15 1944 1
15 2383 1
15 2557 1
15 2781 1
15 2967 1
16 209 1
16 297 1
16 697 1
16 808 1
16 1096 1
16 1594 1
16 1738 1
16 1945 1
16 2384 1
16 2469 1
16 2782 1
16 2968 1
17 210 1
17 476 1
17 698 1
17 809 1
17 1097 1
17 1595 1
17 1739 1
17 1946 1
17 2385 1
17 2648 1
17 2783 1
17 2969 1
18 211 1
18 388 1
18 699 1
18 810 1
18 1098 1
18 1596 1
18 1740 1
18 1947 1
18 2386 1
18 2560 1
18 2784 1
18 2970 1
19 212 1
19 300 1
19 700 1
19 811 1
19 1099 1
19 1597 1
19 1741 1
19 1948 1
19 2387 1
19 2472 1
19 2785 1
19 2971 1
20 213 1
20 479 1
20 701 1
20 812 1
20 1100 1
20 1598 1
20 1742 1
20 1949 1
20 2388 1
20 2651 1
20 2786 1
20 2972 1
21 214 1
21 391 1
21 702 1
21 813 1
21 1101 1
21 1599 1
21 1743 1
21 1950 1
21 2389 1
21 2563 1
21 2787 1
21 2973 1
22 215 1
22 303 1
22 703 1
22 814 1
22 1102 1
22 1600 1
22 1744 1
22 1951 1
22 2390 1
22 2475 1
22 2788 1
22 2974 1
23 216 1
23 482 1
23 704 1
23 815 1
23 1103 1
23 1601 1
23 1745 1
23 1952 1
23 2391 1
23 2654 1
23 2789 1
23 2975 1
24 217 1
24 394 1
24 705 1
24 816 1
24 1104 1
24 1602 1
24 1746 1
24 1953 1
24 2392 1
24 2566 1
24 2790 1
24 2976 1
25 218 1
25 306 1
25 706 1
25 817 1
25 1105 1
25 1336 1
25 1747 1
25 1954 1
25 2393 1
25 2478 1
25 2791 1
25 2977 1
26 219 1
26 485 1
26 707 1
26 818 1
26 1106 1
26 1337 1
26 1748 1
26 1955 1
26 2394 1
26 2657 1
26 2792 1
26 2978 1
27 220 1
27 397 1
27 708 1
27 819 1
27 1107 1
27 1338 1
27 1749 1
27 1956 1
27 2395 1
27 2569 1
27 2793 1
27 2979 1
28 221 1
28 309 1
28 709 1
28 820 1
28 1108 1
28 1339 1
28 1750 1
28 1957 1
28 2396 1
28 2481 1
28 2794 1
28 2980 1
29 222 1
29 488 1
29 710 1
29 821 1
29 1109 1
29 1340 1
29 1751 1
29 1958 1
29 2397 1
29 2660 1
29 2795 1
29 2981 1
30 223 1
30 400 1
30 711 1
30 822 1
30 1110 1
30 1341 1
30 1752 1
30 1959 1
30 2398 1
30 2572 1
30 2796 1
30 2982 1
31 224 1
31 312 1
31 712 1
31 823 1
31 1111 1
31 1342 1
31 1753 1
31 1960 1
31 2399 1
31 2484 1
31 2797 1
31 2983 1
32 225 1
32 491 1
32 713 1
32 824 1
32 1112 1
32 1343 1
32 1754 1
32 1961 1
32 2400 1
32 2663 1
32 2798 1
32 2984 1
33 226 1
33 403 1
33 714 1
33 825 1
33 1113 1
33 1344 1
33 1755 1
33 1962 1
33 2401 1
33 2575 1
33 2799 1
33 2985 1
34 227 1
34 315 1
34 715 1
34 826 1
34 1114 1
34 1345 1
34 1756 1
34 1963 1
34 2402 1
34 2487 1
34 2800 1
34 2986 1
35 228 1
35 494 1
35 716 1
35 827 1
35 1115 1
35 1346 1
35 1757 1
35 1964 1
35 2403 1
35 2666 1
35 2801 1
35 2987 1
36 229 1
36 406 1
36 717 1
36 828 1
36 1116 1
36 1347 1
36 1758 1
36 1965 1
36 2137 1
36 2578 1
36 2802 1
36 2988 1
37 230 1
37 318 1
37 718 1
37 829 1
37 1117 1
37 1348 1
37 1759 1
37 1966 1
37 2138 1
37 2490 1
37 2803 1
37 2989 1
38 231 1
38 497 1
38 719 1
38 830 1
38 1118 1
38 1349 1
38 1760 1
38 1967 1
38 2139 1
38 2669 1
38 2804 1
38 2990 1
39 232 1
39 409 1
39 720 1
39 831 1
39 1119 1
39 1350 1
39 1761 1
39 1968 1
39 2140 1
39 2581 1
39 2805 1
39 2991 1
40 233 1
40 321 1
40 721 1
40 832 1
40 1120 1
40 1351 1
40 1762 1
40 1969 1
40 2141 1
40 2493 1
40 2806 1
40 2992 1
41 234 1
41 500 1
41 722 1
41 833 1
41 1121 1
41 1352 1
41 1763 1
41 1970 1
41 2142 1
41 2405 1
41 2807 1
41 2993 1
42 235 1
42 412 1
42 723 1
42 834 1
42 1122 1
42 1353 1
42 1764 1
42 1971 1
42 2143 1
42 2584 1
42 2808 1
42 2994 1
43 236 1
43 324 1
43 724 1
43 835 1
43 1123 1
43 1354 1
43 1765 1
43 1972 1
43 2144 1
43 2496 1
43 2809 1
43 2995 1
44 237 1
44 503 1
44 725 1
44 836 1
44 1124 1
44 1355 1
44 1766 1
44 1973 1
44 2145 1
44 2408 1
44 2810 1
44 2996 1
45 238 1
45 415 1
45 726 1
45 837 1
45 1125 1
45 1356 1
45 1767 1
45 1974 1
45 2146 1
45 2587 1
45 2811 1
45 2997 1
46 239 1
46 327 1
46 727 1
46 838 1
46 1126 1
46 1357 1
46 1768 1
46 1975 1
46 2147 1
46 2499 1
46 2812 1
46 2998 1
47 240 1
47 506 1
47 728 1
47 839 1
47 1127 1
47 1358 1
47 1769 1
47 1976 1
47 2148 1
47 2411 1
47 2813 1
47 2999 1
48 241 1
48 418 1
48 729 1
48 840 1
48 1128 1
48 1359 1
48 1770 1
48 1977 1
48 2149 1
48 2590 1
48 2814 1
48 3000 1
49 242 1
49 330 1
49 730 1
49 841 1
49 1129 1
49 1360 1
49 1771 1
49 1978 1
49 2150 1
49 2502 1
49 2815 1
49 3001 1
50 243 1
50 509 1
50 731 1
50 842 1
50 1130 1
50 1361 1
50 1772 1
50 1979 1
50 2151 1
50 2414 1
50 2816 1
50 3002 1
51 244 1
51 421 1
51 732 1
51 843 1
51 1131 1
51 1362 1
51 1773 1
51 1980 1
51 2152 1
51 2593 1
51 2817 1
51 3003 1
52 245 1
52 333 1
52 733 1
52 844 1
52 1132 1
52 1363 1
52 1774 1
52 1981 1
52 2153 1
52 2505 1
52 2818 1
52 3004 1
53 246 1
53 512 1
53 734 1
53 845 1
53 1133 1
53 1364 1
53 1775 1
53 1982 1
53 2154 1
53 2417 1
53 2819 1
53 3005 1
54 247 1
54 424 1
54 735 1
54 846 1
54 1134 1
54 1365 1
54 1776 1
54 1983 1
54 2155 1
54 2596 1
54 2820 1
54 3006 1
55 248 1
55 336 1
55 736 1
55 847 1
55 1135 1
55 1366 1
55 1777 1
55 1984 1
55 2156 1
55 2508 1
55 2821 1
55 3007 1
56 249 1
56 515 1
56 737 1
56 848 1
56 1136 1
56 1367 1
56 1778 1
56 1985 1
56 2157 1
56 2420 1
56 2822 1
56 3008 1
57 250 1
57 427 1
57 738 1
57 849 1
57 1137 1
57 1368 1
57 1779 1
57 1986 1
57 2158 1
57 2599 1
57 2823 1
57 3009 1
58 251 1
58 339 1
58 739 1
58 850 1
58 1138 1
58 1369 1
58 1780 1
58 1987 1
58 2159 1
58 2511 1
58 2824 1
58 3010 1
59 252 1
59 518 1
59 740 1
59 851 1
59 1139 1
59 1370 1
59 1781 1
59 1988 1
59 2160 1
59 2423 1
59 2825 1
59 3011 1
60 253 1
60 430 1
60 741 1
60 852 1
60 1140 1
60 1371 1
60 1782 1
60 1989 1
60 2161 1
60 2602 1
60 2826 1
60 3012 1
61 254 1
61 342 1
61 742 1
61 853 1
61 1141 1
61 1372 1
61 1783 1
61 1990 1
61 2162 1
61 2514 1
61 2827 1
61 3013 1
62 255 1
62 521 1
62 743 1
62 854 1
62 1142 1
62 1373 1
62 1784 1
62 1991 1
62 2163 1
62 2426 1
62 2828 1
62 3014 1
63 256 1
63 433 1
63 744 1
63 855 1
63 1143 1
63 1374 1
63 1785 1
63 1992 1
63 2164 1
63 2605 1
63 2829 1
63 3015 1
64 257 1
64 345 1
64 745 1
64 856 1
64 1144 1
64 1375 1
64 1786 1
64 1993 1
64 2165 1
64 2517 1
64 2830 1
64 3016 1
65 258 1
65 524 1
65 746 1
65 857 1
65 1145 1
65 1376 1
65 1787 1
65 1994 1
65 2166 1
65 2429 1
65 2831 1
65 3017 1
66 259 1
66 436 1
66 747 1
66 858 1
66 1146 1
66 1377 1
66 1788 1
66 1995 1
66 2167 1
66 2608 1
66 2832 1
66 3018 1
67 260 1
67 348 1
67 748 1
67 859 1
67 1147 1
67 1378 1
67 1789 1
67 1996 1
67 2168 1
67 2520 1
67 2833 1
67 3019 1
68 261 1
68 527 1
68 749 1
68 860 1
68 1148 1
68 1379 1
68 1790 1
68 1997 1
68 2169 1
68 2432 1
68 2834 1
68 3020 1
69 262 1
69 439 1
69 750 1
69 861 1
69 1149 1
69 1380 1
69 1791 1
69 1998 1
69 2170 1
69 2611 1
69 2835 1
69 3021 1
70 263 1
70 351 1
70 751 1
70 862 1
70 1150 1
70 1381 1
70 1792 1
70 1999 1
70 2171 1
70 2523 1
70 2836 1
70 3022 1
71 264 1
71 530 1
71 752 1
71 863 1
71 1151 1
71 1382 1
71 1793 1
71 2000 1
71 2172 1
71 2435 1
71 2837 1
71 3023 1
72 265 1
72 442 1
72 753 1
72 864 1
72 1152 1
72 1383 1
72 1794 1
72 2001 1
72 2173 1
72 2614 1
72 2838 1
72 3024 1
73 266 1
73 354 1
73 754 1
73 865 1
73 1153 1
73 1384 1
73 1795 1
73 2002 1
73 2174 1
73 2526 1
73 2839 1
73 3025 1
74 267 1
74 533 1
74 755 1
74 866 1
74 1154 1
74 1385 1
74 1796 1
74 2003 1
74 2175 1
74 2438 1
74 2840 1
74 3026 1
75 1 1
75 445 1
75 756 1
75 867 1
75 1155 1
75 1386 1
75 1797 1
75 2004 1
75 2176 1
75 2617 1
75 2841 1
75 3027 1
76 2 1
76 357 1
76 757 1
76 868 1
76 1156 1
76 1387 1
76 1798 1
76 2005 1
76 2177 1
76 2529 1
76 2842 1
76 3028 1
77 3 1
77 269 1
77 758 1
77 869 1
77 1157 1
77 1388 1
77 1799 1
77 2006 1
77 2178 1
77 2441 1
77 2843 1
77 3029 1
78 4 1
78 448 1
78 759 1
78 870 1
78 1158 1
78 1389 1
78 1800 1
78 2007 1
78 2179 1
78 2620 1
78 2844 1
78 3030 1
79 5 1
79 360 1
79 760 1
79 871 1
79 1159 1
79 1390 1
79 1801 1
79 2008 1
79 2180 1
79 2532 1
79 2845 1
79 3031 1
80 6 1
80 272 1
80 761 1
80 872 1
80 1160 1
80 1391 1
80 1802 1
80 2009 1
80 2181 1
80 2444 1
80 2846 1
80 3032 1
81 7 1
81 451 1
81 762 1
81 873 1
81 1161 1
81 1392 1
81 1803 1
81 2010 1
81 2182 1
81 2623 1
81 2847 1
81 3033 1
82 8 1
82 363 1
82 763 1
82 874 1
82 1162 1
82 1393 1
82 1804 1
82 2011 1
82 2183 1
82 2535 1
82 2848 1
82 3034 1
83 9 1
83 275 1
83 764 1
83 875 1
83 1163 1
83 1394 1
83 1805 1
83 2012 1
83 2184 1
83 2447 1
83 2849 1
83 3035 1
84 10 1
84 454 1
84 765 1
84 876 1
84 1164 1
84 1395 1
84 1806 1
84 2013 1
84 2185 1
84 2626 1
84 2850 1
84 3036 1
85 11 1
85 366 1
85 766 1
85 877 1
85 1165 1
85 1396 1
85 1807 1
85 2014 1
85 2186 1
85 2538 1
85 2851 1
85 3037 1
86 12 1
86 278 1
86 767 1
86 878 1
86 1166 1
86 1397 1
86 1808 1
86 2015 1
86 2187 1
86 2450 1
86 2852 1
86 3038 1
87 13 1
87 457 1
87 768 1
87 879 1
87 1167 1
87 1398 1
87 1809 1
87 2016 1
87 2188 1
87 2629 1
87 2853 1
87 3039 1
88 14 1
88 369 1
88 769 1
88 880 1
88 1168 1
88 1399 1
88 1810 1
88 2017 1
88 2189 1
88 2541 1
88 2854 1
88 3040 1
89 15 1
89 281 1
89 770 1
89 881 1
89 1169 1
89 1400 1
89 1811 1
89 2018 1
89 2190 1
89 2453 1
89 2855 1
89 3041 1
90 16 1
90 460 1
90 771 1
90 882 1
90 1170 1
90 1401 1
90 1812 1
90 2019 1
90 2191 1
90 2632 1
90 2856 1
90 3042 1
91 17 1
91 372 1
91 772 1
91 883 1
91 1171 1
91 1402 1
91 1813 1
91 2020 1
91 2192 1
91 2544 1
91 2857 1
91 3043 1
92 18 1
92 284 1
92 773 1
92 884 1
92 1172 1
92 1403 1
92 1814 1
92 2021 1
92 2193 1
92 2456 1
92 2858 1
92 3044 1
93 19 1
93 463 1
93 774 1
93 885 1
93 1173 1
93 1404 1
93 1815 1
93 2022 1
93 2194 1
93 2635 1
93 2859 1
93 3045 1
94 20 1
94 375 1
94 775 1
94 886 1
94 1174 1
94 1405 1
94 1816 1
94 2023 1
94 2195 1
94 2547 1
94 2860 1
94 3046 1
95 21 1
95 287 1
95 776 1
95 887 1
95 1175 1
95 1406 1
95 1817 1
95 2024 1
95 2196 1
95 2459 1
95 2861 1
95 3047 1
96 22 1
96 466 1
96 777 1
96 888 1
96 1176 1
96 1407 1
96 1818 1
96 2025 1
96 2197 1
96 2638 1
96 2862 1
96 3048 1
97 23 1
97 378 1
97 778 1
97 889 1
97 1177 1
97 1408 1
97 1819 1
97 2026 1
97 2198 1
97 2550 1
97 2863 1
97 3049 1
98 24 1
98 290 1
98 779 1
98 890 1
98 1178 1
98 1409 1
98 1820 1
98 2027 1
98 2199 1
98 2462 1
98 2864 1
98 3050 1
99 25 1
99 469 1
99 780 1
99 891 1
99 1179 1
99 1410 1
99 1821 1
99 2028 1
99 2200 1
99 2641 1
99 2865 1
99 3051 1
100 26 1
100 381 1
100 781 1
100 892 1
100 1180 1
100 1411 1
100 1822 1
100 2029 1
100 2201 1
100 2553 1
100 2866 1
100 3052 1
101 27 1
101 293 1
101 782 1
101 893 1
101 1181 1
101 1412 1
101 1823 1
101 2030 1
101 2202 1
101 2465 1
101 2867 1
101 3053 1
102 28 1
102 472 1
102 783 1
102 894 1
102 1182 1
102 1413 1
102 1824 1
102 2031 1
102 2203 1
102 2644 1
102 2868 1
102 3054 1
103 29 1
103 384 1
103 784 1
103 895 1
103 1183 1
103 1414 1
103 1825 1
103 2032 1
103 2204 1
103 2556 1
103 2869 1
103 3055 1
104 30 1
104 296 1
104 785 1
104 896 1
104 1184 1
104 1415 1
104 1826 1
104 2033 1
104 2205 1
104 2468 1
104 2870 1
104 3056 1
105 31 1
105 475 1
105 786 1
105 897 1
105 1185 1
105 1416 1
105 1827 1
105 2034 1
105 2206 1
105 2647 1
105 2871 1
105 3057 1
106 32 1
106 387 1
106 787 1
106 898 1
106 1186 1
106 1417 1
106 1828 1
106 2035 1
106 2207 1
106 2559 1
106 2872 1
106 3058 1
107 33 1
107 299 1
107 788 1
107 899 1
107 1187 1
107 1418 1
107 1829 1
107 2036 1
107 2208 1
107 2471 1
107 2873 1
107 3059 1
108 34 1
108 478 1
108 789 1
108 900 1
108 1188 1
108 1419 1
108 1830 1
108 2037 1
108 2209 1
108 2650 1
108 2874 1
108 3060 1
109 35 1
109 390 1
109 790 1
109 901 1
109 1189 1
109 1420 1
109 1831 1
109 2038 1
109 2210 1
109 2562 1
109 2875 1
109 3061 1
110 36 1
110 302 1
110 791 1
110 902 1
110 1190 1
110 1421 1
110 1832 1
110 2039 1
110 2211 1
110 2474 1
110 2876 1
110 3062 1
111 37 1
111 481 1
111 792 1
111 903 1
111 1191 1
111 1422 1
111 1833 1
111 2040 1
111 2212 1
111 2653 1
111 2877 1
111 3063 1
112 38 1
112 393 1
112 793 1
112 904 1
112 1192 1
112 1423 1
112 1834 1
112 2041 1
112 2213 1
112 2565 1
112 2878 1
112 3064 1
113 39 1
113 305 1
113 794 1
113 905 1
113 1193 1
113 1424 1
113 1835 1
113 2042 1
113 2214 1
113 2477 1
113 2879 1
113 3065 1
114 40 1
114 484 1
114 795 1
114 906 1
114 1194 1
114 1425 1
114 1836 1
114 2043 1
114 2215 1
114 2656 1
114 2880 1
114 3066 1
115 41 1
115 396 1
115 796 1
115 907 1
115 1195 1
115 1426 1
115 1837 1
115 2044 1
115 2216 1
115 2568 1
115 2881 1
115 3067 1
116 42 1
116 308 1
116 797 1
116 908 1
116 1196 1
116 1427 1
116 1838 1
116 2045 1
116 2217 1
116 2480 1
116 2882 1
116 3068 1
117 43 1
117 487 1
117 798 1
117 909 1
117 1197 1
117 1428 1
117 1839 1
117 2046 1
117 2218 1
117 2659 1
117 2883 1
117 3069 1
118 44 1
118 399 1
118 799 1
118 910 1
118 1198 1
118 1429 1
118 1840 1
118 2047 1
118 2219 1
118 2571 1
118 2884 1
118 3070 1
119 45 1
119 311 1
119 800 1
119 911 1
119 1199 1
119 1430 1
119 1841 1
119 2048 1
119 2220 1
119 2483 1
119 2885 1
119 3071 1
120 46 1
120 490 1
120 801 1
120 912 1
120 1200 1
120 1431 1
120 1842 1
120 2049 1
120 2221 1
120 2662 1
120 2886 1
120 3072 1
121 47 1
121 402 1
121 535 1
121 913 1
121 1201 1
121 1432 1
121 1843 1
121 2050 1
121 2222 1
121 2574 1
121 2887 1
121 3073 1
122 48 1
122 314 1
122 536 1
122 914 1
122 1202 1
122 1433 1
122 1844 1
122 2051 1
122 2223 1
122 2486 1
122 2888 1
122 3074 1
123 49 1
123 493 1
123 537 1
123 915 1
123 1203 1
123 1434 1
123 1845 1
123 2052 1
123 2224 1
123 2665 1
123 2889 1
123 3075 1
124 50 1
124 405 1
124 538 1
124 916 1
124 1204 1
124 1435 1
124 1846 1
124 2053 1
124 2225 1
124 2577 1
124 2890 1
124 3076 1
125 51 1
125 317 1
125 539 1
125 917 1
125 1205 1
125 1436 1
125 1847 1
125 2054 1
125 2226 1
125 2489 1
125 2891 1
125 3077 1
126 52 1
126 496 1
126 540 1
126 918 1
126 1206 1
126 1437 1
126 1848 1
126 2055 1
126 2227 1
126 2668 1
126 2892 1
126 3078 1
127 53 1
127 408 1
127 541 1
127 919 1
127 1207 1
127 1438 1
127 1849 1
127 2056 1
127 2228 1
127 2580 1
127 2893 1
127 3079 1
128 54 1
128 320 1
128 542 1
128 920 1
128 1208 1
128 1439 1
128 1850 1
128 2057 1
128 2229 1
128 2492 1
128 2894 1
128 3080 1
129 55 1
129 499 1
129 543 1
129 921 1
129 1209 1
129 1440 1
129 1851 1
129 2058 1
129 2230 1
129 2404 1
129 2895 1
129 3081 1
130 56 1
130 411 1
130 544 1
130 922 1
130 1210 1
130 1441 1
130 1852 1
130 2059 1
130 2231 1
130 2583 1
130 2896 1
130 3082 1
131 57 1
131 323 1
131 545 1
131 923 1
131 1211 1
131 1442 1
131 1853 1
131 2060 1
131 2232 1
131 2495 1
131 2897 1
131 3083 1
132 58 1
132 502 1
132 546 1
132 924 1
132 1212 1
132 1443 1
132 1854 1
132 2061 1
132 2233 1
132 2407 1
132 2898 1
132 3084 1
133 59 1
133 414 1
133 547 1
133 925 1
133 1213 1
133 1444 1
133 1855 1
133 2062 1
133 2234 1
133 2586 1
133 2899 1
133 3085 1
134 60 1
134 326 1
134 548 1
134 926 1
134 1214 1
134 1445 1
134 1856 1
134 2063 1
134 2235 1
134 2498 1
134 2900 1
134 3086 1
135 61 1
135 505 1
135 549 1
135 927 1
135 1215 1
135 1446 1
135 1857 1
135 2064 1
135 2236 1
135 2410 1
135 2901 1
135 3087 1
136 62 1
136 417 1
136 550 1
136 928 1
136 1216 1
136 1447 1
136 1858 1
136 2065 1
136 2237 1
136 2589 1
136 2902 1
136 3088 1
137 63 1
137 329 1
137 551 1
137 929 1
137 1217 1
137 1448 1
137 1859 1
137 2066 1
137 2238 1
137 2501 1
137 2903 1
137 3089 1
138 64 1
138 508 1
138 552 1
138 930 1
138 1218 1
138 1449 1
138 1860 1
138 2067 1
138 2239 1
138 2413 1
138 2904 1
138 3090 1
139 65 1
139 420 1
139 553 1
139 931 1
139 1219 1
139 1450 1
139 1861 1
139 2068 1
139 2240 1
139 2592 1
139 2905 1
139 3091 1
140 66 1
140 332 1
140 554 1
140 932 1
140 1220 1
140 1451 1
140 1862 1
140 2069 1
140 2241 1
140 2504 1
140 2906 1
140 3092 1
141 67 1
141 511 1
141 555 1
141 933 1
141 1221 1
141 1452 1
141 1863 1
141 2070 1
141 2242 1
141 2416 1
141 2907 1
141 3093 1
142 68 1
142 423 1
142 556 1
142 934 1
142 1222 1
142 1453 1
142 1864 1
142 2071 1
142 2243 1
142 2595 1
142 2908 1
142 3094 1
143 69 1
143 335 1
143 557 1
143 935 1
143 1223 1
143 1454 1
143 1865 1
143 2072 1
143 2244 1
143 2507 1
143 2909 1
143 3095 1
144 70 1
144 514 1
144 558 1
144 936 1
144 1224 1
144 1455 1
144 1866 1
144 2073 1
144 2245 1
144 2419 1
144 2910 1
144 3096 1
145 71 1
145 426 1
145 559 1
145 937 1
145 1225 1
145 1456 1
145 1867 1
145 2074 1
145 2246 1
145 2598 1
145 2911 1
145 3097 1
146 72 1
146 338 1
146 560 1
146 938 1
146 1226 1
146 1457 1
146 1868 1
146 2075 1
146 2247 1
146 2510 1
146 2912 1
146 3098 1
147 73 1
147 517 1
147 561 1
147 939 1
147 1227 1
147 1458 1
147 1869 1
147 2076 1
147 2248 1
147 2422 1
147 2913 1
147 3099 1
148 74 1
148 429 1
148 562 1
148 940 1
148 1228 1
148 1459 1
148 1603 1
148 2077 1
148 2249 1
148 2601 1
148 2914 1
148 3100 1
149 75 1
149 341 1
149 563 1
149 941 1
149 1229 1
149 1460 1
149 1604 1
149 2078 1
149 2250 1
149 2513 1
149 2915 1
149 3101 1
150 76 1
150 520 1
150 564 1
150 942 1
150 1230 1
150 1461 1
150 1605 1
150 2079 1
150 2251 1
150 2425 1
150 2916 1
150 3102 1
151 77 1
151 432 1
151 565 1
151 943 1
151 1231 1
151 1462 1
151 1606 1
151 2080 1
151 2252 1
151 2604 1
151 2917 1
151 3103 1
152 78 1
152 344 1
152 566 1
152 944 1
152 1232 1
152 1463 1
152 1607 1
152 2081 1
152 2253 1
152 2516 1
152 2918 1
152 3104 1
153 79 1
153 523 1
153 567 1
153 945 1
153 1233 1
153 1464 1
153 1608 1
153 2082 1
153 2254 1
153 2428 1
153 2919 1
153 3105 1
154 80 1
154 435 1
154 568 1
154 946 1
154 1234 1
154 1465 1
154 1609 1
154 2083 1
154 2255 1
154 2607 1
154 2920 1
154 3106 1
155 81 1
155 347 1
155 569 1
155 947 1
155 1235 1
155 1466 1
155 1610 1
155 2084 1
155 2256 1
155 2519 1
155 2921 1
155 3107 1
156 82 1
156 526 1
156 570 1
156 948 1
156 1236 1
156 1467 1
156 1611 1
156 2085 1
156 2257 1
156 2431 1
156 2922 1
156 3108 1
157 83 1
157 438 1
157 571 1
157 949 1
157 1237 1
157 1468 1
157 1612 1
157 2086 1
157 2258 1
157 2610 1
157 2923 1
157 3109 1
158 84 1
158 350 1
158 572 1
158 950 1
158 1238 1
158 1469 1
158 1613 1
158 2087 1
158 2259 1
158 2522 1
158 2924 1
158 3110 1
159 85 1
159 529 1
159 573 1
159 951 1
159 1239 1
159 1470 1
159 1614 1
159 2088 1
159 2260 1
159 2434 1
159 2925 1
159 3111 1
160 86 1
160 441 1
160 574 1
160 952 1
160 1240 1
160 1471 1
160 1615 1
160 2089 1
160 2261 1
160 2613 1
160 2926 1
160 3112 1
161 87 1
161 353 1
161 575 1
161 953 1
161 1241 1
161 1472 1
161 1616 1
161 2090 1
161 2262 1
161 2525 1
161 2927 1
161 3113 1
162 88 1
162 532 1
162 576 1
162 954 1
162 1242 1
162 1473 1
162 1617 1
162 2091 1
162 2263 1
162 2437 1
162 2928 1
162 3114 1
163 89 1
163 444 1
163 577 1
163 955 1
163 1243 1
163 1474 1
163 1618 1
163 2092 1
163 2264 1
163 2616 1
163 2929 1
163 3115 1
164 90 1
164 356 1
164 578 1
164 956 1
164 1244 1
164 1475 1
164 1619 1
164 2093 1
164 2265 1
164 2528 1
164 2930 1
164 3116 1
165 91 1
165 268 1
165 579 1
165 957 1
165 1245 1
165 1476 1
165 1620 1
165 2094 1
165 2266 1
165 2440 1
165 2931 1
165 3117 1
166 92 1
166 447 1
166 580 1
166 958 1
166 1246 1
166 1477 1
166 1621 1
166 2095 1
166 2267 1
166 2619 1
166 2932 1
166 3118 1
167 93 1
167 359 1
167 581 1
167 959 1
167 1247 1
167 1478 1
167 1622 1
167 2096 1
167 2268 1
167 2531 1
167 2933 1
167 3119 1
168 94 1
168 271 1
168 582 1
168 960 1
168 1248 1
168 1479 1
168 1623 1
168 2097 1
168 2269 1
168 2443 1
168 2934 1
168 3120 1
169 95 1
169 450 1
169 583 1
169 961 1
169 1249 1
169 1480 1
169 1624 1
169 2098 1
169 2270 1
169 2622 1
169 2935 1
169 3121 1
170 96 1
170 362 1
170 584 1
170 962 1
170 1250 1
170 1481 1
170 1625 1
170 2099 1
170 2271 1
170 2534 1
170 2936 1
170 3122 1
171 97 1
171 274 1
171 585 1
171 963 1
171 1251 1
171 1482 1
171 1626 1
171 2100 1
171 2272 1
171 2446 1
171 2937 1
171 3123 1
172 98 1
172 453 1
172 586 1
172 964 1
172 1252 1
172 1483 1
172 1627 1
172 2101 1
172 2273 1
172 2625 1
172 2671 1
172 3124 1
173 99 1
173 365 1
173 587 1
173 965 1
173 1253 1
173 1484 1
173 1628 1
173 2102 1
173 2274 1
173 2537 1
173 2672 1
173 3125 1
174 100 1
174 277 1
174 588 1
174 966 1
174 1254 1
174 1485 1
174 1629 1
174 2103 1
174 2275 1
174 2449 1
174 2673 1
174 3126 1
175 101 1
175 456 1
175 589 1
175 967 1
175 1255 1
175 1486 1
175 1630 1
175 2104 1
175 2276 1
175 2628 1
175 2674 1
175 3127 1
176 102 1
176 368 1
176 590 1
176 968 1
176 1256 1
176 1487 1
176 1631 1
176 2105 1
176 2277 1
176 2540 1
176 2675 1
176 3128 1
177 103 1
177 280 1
177 591 1
177 969 1
177 1257 1
177 1488 1
177 1632 1
177 2106 1
177 2278 1
177 2452 1
177 2676 1
177 3129 1
178 104 1
178 459 1
178 592 1
178 970 1
178 1258 1
178 1489 1
178 1633 1
178 2107 1
178 2279 1
178 2631 1
178 2677 1
178 3130 1
179 105 1
179 371 1
179 593 1
179 971 1
179 1259 1
179 1490 1
179 1634 1
179 2108 1
179 2280 1
179 2543 1
179 2678 1
179 3131 1
180 106 1
180 283 1
180 594 1
180 972 1
180 1260 1
180 1491 1
180 1635 1
180 2109 1
180 2281 1
180 2455 1
180 2679 1
180 3132 1
181 107 1
181 462 1
181 595 1
181 973 1
181 1261 1
181 1492 1
181 1636 1
181 2110 1
181 2282 1
181 2634 1
181 2680 1
181 3133 1
182 108 1
182 374 1
182 596 1
182 974 1
182 1262 1
182 1493 1
182 1637 1
182 2111 1
182 2283 1
182 2546 1
182 2681 1
182 3134 1
183 109 1
183 286 1
183 597 1
183 975 1
183 1263 1
183 1494 1
183 1638 1
183 2112 1
183 2284 1
183 2458 1
183 2682 1
183 3135 1
184 110 1
184 465 1
184 598 1
184 976 1
184 1264 1
184 1495 1
184 1639 1
184 2113 1
184 2285 1
184 2637 1
184 2683 1
184 3136 1
185 111 1
185 377 1
185 599 1
185 977 1
185 1265 1
185 1496 1
185 1640 1
185 2114 1
185 2286 1
185 2549 1
185 2684 1
185 3137 1
186 112 1
186 289 1
186 600 1
186 978 1
186 1266 1
186 1497 1
186 1641 1
186 2115 1
186 2287 1
186 2461 1
186 2685 1
186 3138 1
187 113 1
187 468 1
187 601 1
187 979 1
187 1267 1
187 1498 1
187 1642 1
187 2116 1
187 2288 1
187 2640 1
187 2686 1
187 3139 1
188 114 1
188 380 1
188 602 1
188 980 1
188 1268 1
188 1499 1
188 1643 1
188 2117 1
188 2289 1
188 2552 1
188 2687 1
188 3140 1
189 115 1
189 292 1
189 603 1
189 981 1
189 1269 1
189 1500 1
189 1644 1
189 2118 1
189 2290 1
189 2464 1
189 2688 1
189 3141 1
190 116 1
190 471 1
190 604 1
190 982 1
190 1270 1
190 1501 1
190 1645 1
190 2119 1
190 2291 1
190 2643 1
190 2689 1
190 3142 1
191 117 1
191 383 1
191 605 1
191 983 1
191 1271 1
191 1502 1
191 1646 1
191 2120 1
191 2292 1
191 2555 1
191 2690 1
191 3143 1
192 118 1
192 295 1
192 606 1
192 984 1
192 1272 1
192 1503 1
192 1647 1
192 2121 1
192 2293 1
192 2467 1
192 2691 1
192 3144 1
193 119 1
193 474 1
193 607 1
193 985 1
193 1273 1
193 1504 1
193 1648 1
193 2122 1
193 2294 1
193 2646 1
193 2692 1
193 3145 1
194 120 1
194 386 1
194 608 1
194 986 1
194 1274 1
194 1505 1
194 1649 1
194 2123 1
194 2295 1
194 2558 1
194 2693 1
194 3146 1
195 121 1
195 298 1
195 609 1
195 987 1
195 1275 1
195 1506 1
195 1650 1
195 2124 1
195 2296 1
195 2470 1
195 2694 1
195 3147 1
196 122 1
196 477 1
196 610 1
196 988 1
196 1276 1
196 1507 1
196 1651 1
196 2125 1
196 2297 1
196 2649 1
196 2695 1
196 3148 1
197 123 1
197 389 1
197 611 1
197 989 1
197 1277 1
197 1508 1
197 1652 1
197 2126 1
197 2298 1
197 2561 1
197 2696 1
197 3149 1
198 124 1
198 301 1
198 612 1
198 990 1
198 1278 1
198 1509 1
198 1653 1
198 2127 1
198 2299 1
198 2473 1
198 2697 1
198 3150 1
199 125 1
199 480 1
199 613 1
199 991 1
199 1279 1
199 1510 1
199 1654 1
199 2128 1
199 2300 1
199 2652 1
199 2698 1
199 3151 1
200 126 1
200 392 1
200 614 1
200 992 1
200 1280 1
200 1511 1
200 1655 1
200 2129 1
200 2301 1
200 2564 1
200 2699 1
200 3152 1
201 127 1
201 304 1
201 615 1
201 993 1
201 1281 1
201 1512 1
201 1656 1
201 2130 1
201 2302 1
201 2476 1
201 2700 1
201 3153 1
202 128 1
202 483 1
202 616 1
202 994 1
202 1282 1
202 1513 1
202 1657 1
202 2131 1
202 2303 1
202 2655 1
202 2701 1
202 3154 1
203 129 1
203 395 1
203 617 1
203 995 1
203 1283 1
203 1514 1
203 1658 1
203 2132 1
203 2304 1
203 2567 1
203 2702 1
203 3155 1
204 130 1
204 307 1
204 618 1
204 996 1
204 1284 1
204 1515 1
204 1659 1
204 2133 1
204 2305 1
204 2479 1
204 2703 1
204 3156 1
205 131 1
205 486 1
205 619 1
205 997 1
205 1285 1
205 1516 1
205 1660 1
205 2134 1
205 2306 1
205 2658 1
205 2704 1
205 3157 1
206 132 1
206 398 1
206 620 1
206 998 1
206 1286 1
206 1517 1
206 1661 1
206 2135 1
206 2307 1
206 2570 1
206 2705 1
206 3158 1
207 133 1
207 310 1
207 621 1
207 999 1
207 1287 1
207 1518 1
207 1662 1
207 2136 1
207 2308 1
207 2482 1
207 2706 1
207 3159 1
208 134 1
208 489 1
208 622 1
208 1000 1
208 1288 1
208 1519 1
208 1663 1
208 1870 1
208 2309 1
208 2661 1
208 2707 1
208 3160 1
209 135 1
209 401 1
209 623 1
209 1001 1
209 1289 1
209 1520 1
209 1664 1
209 1871 1
209 2310 1
209 2573 1
209 2708 1
209 3161 1
210 136 1
210 313 1
210 624 1
210 1002 1
210 1290 1
210 1521 1
210 1665 1
210 1872 1
210 2311 1
210 2485 1
210 2709 1
210 3162 1
211 137 1
211 492 1
211 625 1
211 1003 1
211 1291 1
211 1522 1
211 1666 1
211 1873 1
211 2312 1
211 2664 1
211 2710 1
211 3163 1
212 138 1
212 404 1
212 626 1
212 1004 1
212 1292 1
212 1523 1
212 1667 1
212 1874 1
212 2313 1
212 2576 1
212 2711 1
212 3164 1
213 139 1
213 316 1
213 627 1
213 1005 1
213 1293 1
213 1524 1
213 1668 1
213 1875 1
213 2314 1
213 2488 1
213 2712 1
213 3165 1
214 140 1
214 495 1
214 628 1
214 1006 1
214 1294 1
214 1525 1
214 1669 1
214 1876 1
214 2315 1
214 2667 1
214 2713 1
214 3166 1
215 141 1
215 407 1
215 629 1
215 1007 1
215 1295 1
215 1526 1
215 1670 1
215 1877 1
215 2316 1
215 2579 1
215 2714 1
215 3167 1
216 142 1
216 319 1
216 630 1
216 1008 1
216 1296 1
216 1527 1
216 1671 1
216 1878 1
216 2317 1
216 2491 1
216 2715 1
216 3168 1
217 143 1
217 498 1
217 631 1
217 1009 1
217 1297 1
217 1528 1
217 1672 1
217 1879 1
217 2318 1
217 2670 1
217 2716 1
217 3169 1
218 144 1
218 410 1
218 632 1
218 1010 1
218 1298 1
218 1529 1
218 1673 1
218 1880 1
218 2319 1
218 2582 1
218 2717 1
218 3170 1
219 145 1
219 322 1
219 633 1
219 1011 1
219 1299 1
219 1530 1
219 1674 1
219 1881 1
219 2320 1
219 2494 1
219 2718 1
219 3171 1
220 146 1
220 501 1
220 634 1
220 1012 1
220 1300 1
220 1531 1
220 1675 1
220 1882 1
220 2321 1
220 2406 1
220 2719 1
220 3172 1
221 147 1
221 413 1
221 635 1
221 1013 1
221 1301 1
221 1532 1
221 1676 1
221 1883 1
221 2322 1
221 2585 1
221 2720 1
221 3173 1
222 148 1
222 325 1
222 636 1
222 1014 1
222 1302 1
222 1533 1
222 1677 1
222 1884 1
222 2323 1
222 2497 1
222 2721 1
222 3174 1
223 149 1
223 504 1
223 637 1
223 1015 1
223 1303 1
223 1534 1
223 1678 1
223 1885 1
223 2324 1
223 2409 1
223 2722 1
223 3175 1
224 150 1
224 416 1
224 638 1
224 1016 1
224 1304 1
224 1535 1
224 1679 1
224 1886 1
224 2325 1
224 2588 1
224 2723 1
224 3176 1
225 151 1
225 328 1
225 639 1
225 1017 1
225 1305 1
225 1536 1
225 1680 1
225 1887 1
225 2326 1
225 2500 1
225 2724 1
225 3177 1
226 152 1
226 507 1
226 640 1
226 1018 1
226 1306 1
226 1537 1
226 1681 1
226 1888 1
226 2327 1
226 2412 1
226 2725 1
226 3178 1
227 153 1
227 419 1
227 641 1
227 1019 1
227 1307 1
227 1538 1
227 1682 1
227 1889 1
227 2328 1
227 2591 1
227 2726 1
227 3179 1
228 154 1
228 331 1
228 642 1
228 1020 1
228 1308 1
228 1539 1
228 1683 1
228 1890 1
228 2329 1
228 2503 1
228 2727 1
228 3180 1
229 155 1
229 510 1
229 643 1
229 1021 1
229 1309 1
229 1540 1
229 1684 1
229 1891 1
229 2330 1
229 2415 1
229 2728 1
229 3181 1
230 156 1
230 422 1
230 644 1
230 1022 1
230 1310 1
230 1541 1
230 1685 1
230 1892 1
230 2331 1
230 2594 1
230 2729 1
230 3182 1
231 157 1
231 334 1
231 645 1
231 1023 1
231 1311 1
231 1542 1
231 1686 1
231 1893 1
231 2332 1
231 2506 1
231 2730 1
231 3183 1
232 158 1
232 513 1
232 646 1
232 1024 1
232 1312 1
232 1543 1
232 1687 1
232 1894 1
232 2333 1
232 2418 1
232 2731 1
232 3184 1
233 159 1
233 425 1
233 647 1
233 1025 1
233 1313 1
233 1544 1
233 1688 1
233 1895 1
233 2334 1
233 2597 1
233 2732 1
233 3185 1
234 160 1
234 337 1
234 648 1
234 1026 1
234 1314 1
234 1545 1
234 1689 1
234 1896 1
234 2335 1
234 2509 1
234 2733 1
234 3186 1
235 161 1
235 516 1
235 649 1
235 1027 1
235 1315 1
235 1546 1
235 1690 1
235 1897 1
235 2336 1
235 2421 1
235 2734 1
235 3187 1
236 162 1
236 428 1
236 650 1
236 1028 1
236 1316 1
236 1547 1
236 1691 1
236 1898 1
236 2337 1
236 2600 1
236 2735 1
236 3188 1
237 163 1
237 340 1
237 651 1
237 1029 1
237 1317 1
237 1548 1
237 1692 1
237 1899 1
237 2338 1
237 2512 1
237 2736 1
237 3189 1
238 164 1
238 519 1
238 652 1
238 1030 1
238 1318 1
238 1549 1
238 1693 1
238 1900 1
238 2339 1
238 2424 1
238 2737 1
238 3190 1
239 165 1
239 431 1
239 653 1
239 1031 1
239 1319 1
239 1550 1
239 1694 1
239 1901 1
239 2340 1
239 2603 1
239 2738 1
239 3191 1
240 166 1
240 343 1
240 654 1
240 1032 1
240 1320 1
240 1551 1
240 1695 1
240 1902 1
240 2341 1
240 2515 1
240 2739 1
240 3192 1
241 167 1
241 522 1
241 655 1
241 1033 1
241 1321 1
241 1552 1
241 1696 1
241 1903 1
241 2342 1
241 2427 1
241 2740 1
241 3193 1
242 168 1
242 434 1
242 656 1
242 1034 1
242 1322 1
242 1553 1
242 1697 1
242 1904 1
242 2343 1
242 2606 1
242 2741 1
242 3194 1
243 169 1
243 346 1
243 657 1
243 1035 1
243 1323 1
243 1554 1
243 1698 1
243 1905 1
243 2344 1
243 2518 1
243 2742 1
243 3195 1
244 170 1
244 525 1
244 658 1
244 1036 1
244 1324 1
244 1555 1
244 1699 1
244 1906 1
244 2345 1
244 2430 1
244 2743 1
244 3196 1
245 171 1
245 437 1
245 659 1
245 1037 1
245 1325 1
245 1556 1
245 1700 1
245 1907 1
245 2346 1
245 2609 1
245 2744 1
245 3197 1
246 172 1
246 349 1
246 660 1
246 1038 1
246 1326 1
246 1557 1
246 1701 1
246 1908 1
246 2347 1
246 2521 1
246 2745 1
246 3198 1
247 173 1
247 528 1
247 661 1
247 1039 1
247 1327 1
247 1558 1
247 1702 1
247 1909 1
247 2348 1
247 2433 1
247 2746 1
247 3199 1
248 174 1
248 440 1
248 662 1
248 1040 1
248 1328 1
248 1559 1
248 1703 1
248 1910 1
248 2349 1
248 2612 1
248 2747 1
248 3200 1
249 175 1
249 352 1
249 663 1
249 1041 1
249 1329 1
249 1560 1
249 1704 1
249 1911 1
249 2350 1
249 2524 1
249 2748 1
249 3201 1
250 176 1
250 531 1
250 664 1
250 1042 1
250 1330 1
250 1561 1
250 1705 1
250 1912 1
250 2351 1
250 2436 1
250 2749 1
250 3202 1
251 177 1
251 443 1
251 665 1
251 1043 1
251 1331 1
251 1562 1
251 1706 1
251 1913 1
251 2352 1
251 2615 1
251 2750 1
251 3203 1
252 178 1
252 355 1
252 666 1
252 1044 1
252 1332 1
252 1563 1
252 1707 1
252 1914 1
252 2353 1
252 2527 1
252 2751 1
252 3204 1
253 179 1
253 534 1
253 667 1
253 1045 1
253 1333 1
253 1564 1
253 1708 1
253 1915 1
253 2354 1
253 2439 1
253 2752 1
253 2938 1
254 180 1
254 446 1
254 668 1
254 1046 1
254 1334 1
254 1565 1
254 1709 1
254 1916 1
254 2355 1
254 2618 1
254 2753 1
254 2939 1
255 181 1
255 358 1
255 669 1
255 1047 1
255 1335 1
255 1566 1
255 1710 1
255 1917 1
255 2356 1
255 2530 1
255 2754 1
255 2940 1
256 182 1
256 270 1
256 670 1
256 1048 1
256 1069 1
256 1567 1
256 1711 1
256 1918 1
256 2357 1
256 2442 1
256 2755 1
256 2941 1
257 183 1
257 449 1
257 671 1
257 1049 1
257 1070 1
257 1568 1
257 1712 1
257 1919 1
257 2358 1
257 2621 1
257 2756 1
257 2942 1
258 184 1
258 361 1
258 672 1
258 1050 1
258 1071 1
258 1569 1
258 1713 1
258 1920 1
258 2359 1
258 2533 1
258 2757 1
258 2943 1
259 185 1
259 273 1
259 673 1
259 1051 1
259 1072 1
259 1570 1
259 1714 1
259 1921 1
259 2360 1
259 2445 1
259 2758 1
259 2944 1
260 186 1
260 452 1
260 674 1
260 1052 1
260 1073 1
260 1571 1
260 1715 1
260 1922 1
260 2361 1
260 2624 1
260 2759 1
260 2945 1
261 187 1
261 364 1
261 675 1
261 1053 1
261 1074 1
261 1572 1
261 1716 1
261 1923 1
261 2362 1
261 2536 1
261 2760 1
261 2946 1
262 188 1
262 276 1
262 676 1
262 1054 1
262 1075 1
262 1573 1
262 1717 1
262 1924 1
262 2363 1
262 2448 1
262 2761 1
262 2947 1
263 189 1
263 455 1
263 677 1
263 1055 1
263 1076 1
263 1574 1
263 1718 1
263 1925 1
263 2364 1
263 2627 1
263 2762 1
263 2948 1
264 190 1
264 367 1
264 678 1
264 1056 1
264 1077 1
264 1575 1
264 1719 1
264 1926 1
264 2365 1
264 2539 1
264 2763 1
264 2949 1
265 191 1
265 279 1
265 679 1
265 1057 1
265 1078 1
265 1576 1
265 1720 1
265 1927 1
265 2366 1
265 2451 1
265 2764 1
265 2950 1
266 192 1
266 458 1
266 680 1
266 1058 1
266 1079 1
266 1577 1
266 1721 1
266 1928 1
266 2367 1
266 2630 1
266 2765 1
266 2951 1
267 193 1
267 370 1
267 681 1
267 1059 1
267 1080 1
267 1578 1
267 1722 1
267 1929 1
267 2368 1
267 2542 1
267 2766 1
267 2952 1
268 244 1
268 461 1
268 549 1
268 949 1
268 1327 1
268 1348 1
268 1618 1
268 1990 1
268 2197 1
268 2636 1
268 2721 1
268 3034 1
269 245 1
269 462 1
269 728 1
269 950 1
269 1328 1
269 1349 1
269 1619 1
269 1991 1
269 2198 1
269 2637 1
269 2900 1
269 3035 1
270 246 1
270 463 1
270 640 1
270 951 1
270 1329 1
270 1350 1
270 1620 1
270 1992 1
270 2199 1
270 2638 1
270 2812 1
270 3036 1
271 247 1
271 464 1
271 552 1
271 952 1
271 1330 1
271 1351 1
271 1621 1
271 1993 1
271 2200 1
271 2639 1
271 2724 1
271 3037 1
272 248 1
272 465 1
272 731 1
272 953 1
272 1331 1
272 1352 1
272 1622 1
272 1994 1
272 2201 1
272 2640 1
272 2903 1
272 3038 1
273 249 1
273 466 1
273 643 1
273 954 1
273 1332 1
273 1353 1
273 1623 1
273 1995 1
273 2202 1
273 2641 1
273 2815 1
273 3039 1
274 250 1
274 467 1
274 555 1
274 955 1
274 1333 1
274 1354 1
274 1624 1
274 1996 1
274 2203 1
274 2642 1
274 2727 1
274 3040 1
275 251 1
275 468 1
275 734 1
275 956 1
275 1334 1
275 1355 1
275 1625 1
275 1997 1
275 2204 1
275 2643 1
275 2906 1
275 3041 1
276 252 1
276 469 1
276 646 1
276 957 1
276 1335 1
276 1356 1
276 1626 1
276 1998 1
276 2205 1
276 2644 1
276 2818 1
276 3042 1
277 253 1
277 470 1
277 558 1
277 958 1
277 1069 1
277 1357 1
277 1627 1
277 1999 1
277 2206 1
277 2645 1
277 2730 1
277 3043 1
278 254 1
278 471 1
278 737 1
278 959 1
278 1070 1
278 1358 1
278 1628 1
278 2000 1
278 2207 1
278 2646 1
278 2909 1
278 3044 1
279 255 1
279 472 1
279 649 1
279 960 1
279 1071 1
279 1359 1
279 1629 1
279 2001 1
279 2208 1
279 2647 1
279 2821 1
279 3045 1
280 256 1
280 473 1
280 561 1
280 961 1
280 1072 1
280 1360 1
280 1630 1
280 2002 1
280 2209 1
280 2648 1
280 2733 1
280 3046 1
281 257 1
281 474 1
281 740 1
281 962 1
281 1073 1
281 1361 1
281 1631 1
281 2003 1
281 2210 1
281 2649 1
281 2912 1
281 3047 1
282 258 1
282 475 1
282 652 1
282 963 1
282 1074 1
282 1362 1
282 1632 1
282 2004 1
282 2211 1
282 2650 1
282 2824 1
282 3048 1
283 259 1
283 476 1
283 564 1
283 964 1
283 1075 1
283 1363 1
283 1633 1
283 2005 1
283 2212 1
283 2651 1
283 2736 1
283 3049 1
284 260 1
284 477 1
284 743 1
284 965 1
284 1076 1
284 1364 1
284 1634 1
284 2006 1
284 2213 1
284 2652 1
284 2915 1
284 3050 1
285 261 1
285 478 1
285 655 1
285 966 1
285 1077 1
285 1365 1
285 1635 1
285 2007 1
285 2214 1
285 2653 1
285 2827 1
285 3051 1
286 262 1
286 479 1
286 567 1
286 967 1
286 1078 1
286 1366 1
286 1636 1
286 2008 1
286 2215 1
286 2654 1
286 2739 1
286 3052 1
287 263 1
287 480 1
287 746 1
287 968 1
287 1079 1
287 1367 1
287 1637 1
287 2009 1
287 2216 1
287 2655 1
287 2918 1
287 3053 1
288 264 1
288 481 1
288 658 1
288 969 1
288 1080 1
288 1368 1
288 1638 1
288 2010 1
288 2217 1
288 2656 1
288 2830 1
288 3054 1
289 265 1
289 482 1
289 570 1
289 970 1
289 1081 1
289 1369 1
289 1639 1
289 2011 1
289 2218 1
289 2657 1
289 2742 1
289 3055 1
290 266 1
290 483 1
290 749 1
290 971 1
290 1082 1
290 1370 1
290 1640 1
290 2012 1
290 2219 1
290 2658 1
290 2921 1
290 3056 1
291 267 1
291 484 1
291 661 1
291 972 1
291 1083 1
291 1371 1
291 1641 1
291 2013 1
291 2220 1
291 2659 1
291 2833 1
291 3057 1
292 1 1
292 485 1
292 573 1
292 973 1
292 1084 1
292 1372 1
292 1642 1
292 2014 1
292 2221 1
292 2660 1
292 2745 1
292 3058 1
293 2 1
293 486 1
293 752 1
293 974 1
293 1085 1
293 1373 1
293 1643 1
293 2015 1
293 2222 1
293 2661 1
293 2924 1
293 3059 1
294 3 1
294 487 1
294 664 1
294 975 1
294 1086 1
294 1374 1
294 1644 1
294 2016 1
294 2223 1
294 2662 1
294 2836 1
294 3060 1
295 4 1
295 488 1
295 576 1
295 976 1
295 1087 1
295 1375 1
295 1645 1
295 2017 1
295 2224 1
295 2663 1
295 2748 1
295 3061 1
296 5 1
296 489 1
296 755 1
296 977 1
296 1088 1
296 1376 1
296 1646 1
296 2018 1
296 2225 1
296 2664 1
296 2927 1
296 3062 1
297 6 1
297 490 1
297 667 1
297 978 1
297 1089 1
297 1377 1
297 1647 1
297 2019 1
297 2226 1
297 2665 1
297 2839 1
297 3063 1
298 7 1
298 491 1
298 579 1
298 979 1
298 1090 1
298 1378 1
298 1648 1
298 2020 1
298 2227 1
298 2666 1
298 2751 1
298 3064 1
299 8 1
299 492 1
299 758 1
299 980 1
299 1091 1
299 1379 1
299 1649 1
299 2021 1
299 2228 1
299 2667 1
299 2930 1
299 3065 1
300 9 1
300 493 1
300 670 1
300 981 1
300 1092 1
300 1380 1
300 1650 1
300 2022 1
300 2229 1
300 2668 1
300 2842 1
300 3066 1
301 10 1
301 494 1
301 582 1
301 982 1
301 1093 1
301 1381 1
301 1651 1
301 2023 1
301 2230 1
301 2669 1
301 2754 1
301 3067 1
302 11 1
302 495 1
302 761 1
302 983 1
302 1094 1
302 1382 1
302 1652 1
302 2024 1
302 2231 1
302 2670 1
302 2933 1
302 3068 1
303 12 1
303 496 1
303 673 1
303 984 1
303 1095 1
303 1383 1
303 1653 1
303 2025 1
303 2232 1
303 2404 1
303 2845 1
303 3069 1
304 13 1
304 497 1
304 585 1
304 985 1
304 1096 1
304 1384 1
304 1654 1
304 2026 1
304 2233 1
304 2405 1
304 2757 1
304 3070 1
305 14 1
305 498 1
305 764 1
305 986 1
305 1097 1
305 1385 1
305 1655 1
305 2027 1
305 2234 1
305 2406 1
305 2936 1
305 3071 1
306 15 1
306 499 1
306 676 1
306 987 1
306 1098 1
306 1386 1
306 1656 1
306 2028 1
306 2235 1
306 2407 1
306 2848 1
306 3072 1
307 16 1
307 500 1
307 588 1
307 988 1
307 1099 1
307 1387 1
307 1657 1
307 2029 1
307 2236 1
307 2408 1
307 2760 1
307 3073 1
308 17 1
308 501 1
308 767 1
308 989 1
308 1100 1
308 1388 1
308 1658 1
308 2030 1
308 2237 1
308 2409 1
308 2672 1
308 3074 1
309 18 1
309 502 1
309 679 1
309 990 1
309 1101 1
309 1389 1
309 1659 1
309 2031 1
309 2238 1
309 2410 1
309 2851 1
309 3075 1
310 19 1
310 503 1
310 591 1
310 991 1
310 1102 1
310 1390 1
310 1660 1
310 2032 1
310 2239 1
310 2411 1
310 2763 1
310 3076 1
311 20 1
311 504 1
311 770 1
311 992 1
311 1103 1
311 1391 1
311 1661 1
311 2033 1
311 2240 1
311 2412 1
311 2675 1
311 3077 1
312 21 1
312 505 1
312 682 1
312 993 1
312 1104 1
312 1392 1
312 1662 1
312 2034 1
312 2241 1
312 2413 1
312 2854 1
312 3078 1
313 22 1
313 506 1
313 594 1
313 994 1
313 1105 1
313 1393 1
313 1663 1
313 2035 1
313 2242 1
313 2414 1
313 2766 1
313 3079 1
314 23 1
314 507 1
314 773 1
314 995 1
314 1106 1
314 1394 1
314 1664 1
314 2036 1
314 2243 1
314 2415 1
314 2678 1
314 3080 1
315 24 1
315 508 1
315 685 1
315 996 1
315 1107 1
315 1395 1
315 1665 1
315 2037 1
315 2244 1
315 2416 1
315 2857 1
315 3081 1
316 25 1
316 509 1
316 597 1
316 997 1
316 1108 1
316 1396 1
316 1666 1
316 2038 1
316 2245 1
316 2417 1
316 2769 1
316 3082 1
317 26 1
317 510 1
317 776 1
317 998 1
317 1109 1
317 1397 1
317 1667 1
317 2039 1
317 2246 1
317 2418 1
317 2681 1
317 3083 1
318 27 1
318 511 1
318 688 1
318 999 1
318 1110 1
318 1398 1
318 1668 1
318 2040 1
318 2247 1
318 2419 1
318 2860 1
318 3084 1
319 28 1
319 512 1
319 600 1
319 1000 1
319 1111 1
319 1399 1
319 1669 1
319 2041 1
319 2248 1
319 2420 1
319 2772 1
319 3085 1
320 29 1
320 513 1
320 779 1
320 1001 1
320 1112 1
320 1400 1
320 1670 1
320 2042 1
320 2249 1
320 2421 1
320 2684 1
320 3086 1
321 30 1
321 514 1
321 691 1
321 1002 1
321 1113 1
321 1401 1
321 1671 1
321 2043 1
321 2250 1
321 2422 1
321 2863 1
321 3087 1
322 31 1
322 515 1
322 603 1
322 1003 1
322 1114 1
322 1402 1
322 1672 1
322 2044 1
322 2251 1
322 2423 1
322 2775 1
322 3088 1
323 32 1
323 516 1
323 782 1
323 1004 1
323 1115 1
323 1403 1
323 1673 1
323 2045 1
323 2252 1
323 2424 1
323 2687 1
323 3089 1
324 33 1
324 517 1
324 694 1
324 1005 1
324 1116 1
324 1404 1
324 1674 1
324 2046 1
324 2253 1
324 2425 1
324 2866 1
324 3090 1
325 34 1
325 518 1
325 606 1
325 1006 1
325 1117 1
325 1405 1
325 1675 1
325 2047 1
325 2254 1
325 2426 1
325 2778 1
325 3091 1
326 35 1
326 519 1
326 785 1
326 1007 1
326 1118 1
326 1406 1
326 1676 1
326 2048 1
326 2255 1
326 2427 1
326 2690 1
326 3092 1
327 36 1
327 520 1
327 697 1
327 1008 1
327 1119 1
327 1407 1
327 1677 1
327 2049 1
327 2256 1
327 2428 1
327 2869 1
327 3093 1
328 37 1
328 521 1
328 609 1
328 1009 1
328 1120 1
328 1408 1
328 1678 1
328 2050 1
328 2257 1
328 2429 1
328 2781 1
328 3094 1
329 38 1
329 522 1
329 788 1
329 1010 1
329 1121 1
329 1409 1
329 1679 1
329 2051 1
329 2258 1
329 2430 1
329 2693 1
329 3095 1
330 39 1
330 523 1
330 700 1
330 1011 1
330 1122 1
330 1410 1
330 1680 1
330 2052 1
330 2259 1
330 2431 1
330 2872 1
330 3096 1
331 40 1
331 524 1
331 612 1
331 1012 1
331 1123 1
331 1411 1
331 1681 1
331 2053 1
331 2260 1
331 2432 1
331 2784 1
331 3097 1
332 41 1
332 525 1
332 791 1
332 1013 1
332 1124 1
332 1412 1
332 1682 1
332 2054 1
332 2261 1
332 2433 1
332 2696 1
332 3098 1
333 42 1
333 526 1
333 703 1
333 1014 1
333 1125 1
333 1413 1
333 1683 1
333 2055 1
333 2262 1
333 2434 1
333 2875 1
333 3099 1
334 43 1
334 527 1
334 615 1
334 1015 1
334 1126 1
334 1414 1
334 1684 1
334 2056 1
334 2263 1
334 2435 1
334 2787 1
334 3100 1
335 44 1
335 528 1
335 794 1
335 1016 1
335 1127 1
335 1415 1
335 1685 1
335 2057 1
335 2264 1
335 2436 1
335 2699 1
335 3101 1
336 45 1
336 529 1
336 706 1
336 1017 1
336 1128 1
336 1416 1
336 1686 1
336 2058 1
336 2265 1
336 2437 1
336 2878 1
336 3102 1
337 46 1
337 530 1
337 618 1
337 1018 1
337 1129 1
337 1417 1
337 1687 1
337 2059 1
337 2266 1
337 2438 1
337 2790 1
337 3103 1
338 47 1
338 531 1
338 797 1
338 1019 1
338 1130 1
338 1418 1
338 1688 1
338 2060 1
338 2267 1
338 2439 1
338 2702 1
338 3104 1
339 48 1
339 532 1
339 709 1
339 1020 1
339 1131 1
339 1419 1
339 1689 1
339 2061 1
339 2268 1
339 2440 1
339 2881 1
339 3105 1
340 49 1
340 533 1
340 621 1
340 1021 1
340 1132 1
340 1420 1
340 1690 1
340 2062 1
340 2269 1
340 2441 1
340 2793 1
340 3106 1
341 50 1
341 534 1
341 800 1
341 1022 1
341 1133 1
341 1421 1
341 1691 1
341 2063 1
341 2270 1
341 2442 1
341 2705 1
341 3107 1
342 51 1
342 268 1
342 712 1
342 1023 1
342 1134 1
342 1422 1
342 1692 1
342 2064 1
342 2271 1
342 2443 1
342 2884 1
342 3108 1
343 52 1
343 269 1
343 624 1
343 1024 1
343 1135 1
343 1423 1
343 1693 1
343 2065 1
343 2272 1
343 2444 1
343 2796 1
343 3109 1
344 53 1
344 270 1
344 536 1
344 1025 1
344 1136 1
344 1424 1
344 1694 1
344 2066 1
344 2273 1
344 2445 1
344 2708 1
344 3110 1
345 54 1
345 271 1
345 715 1
345 1026 1
345 1137 1
345 1425 1
345 1695 1
345 2067 1
345 2274 1
345 2446 1
345 2887 1
345 3111 1
346 55 1
346 272 1
346 627 1
346 1027 1
346 1138 1
346 1426 1
346 1696 1
346 2068 1
346 2275 1
346 2447 1
346 2799 1
346 3112 1
347 56 1
347 273 1
347 539 1
347 1028 1
347 1139 1
347 1427 1
347 1697 1
347 2069 1
347 2276 1
347 2448 1
347 2711 1
347 3113 1
348 57 1
348 274 1
348 718 1
348 1029 1
348 1140 1
348 1428 1
348 1698 1
348 2070 1
348 2277 1
348 2449 1
348 2890 1
348 3114 1
349 58 1
349 275 1
349 630 1
349 1030 1
349 1141 1
349 1429 1
349 1699 1
349 2071 1
349 2278 1
349 2450 1
349 2802 1
349 3115 1
350 59 1
350 276 1
350 542 1
350 1031 1
350 1142 1
350 1430 1
350 1700 1
350 2072 1
350 2279 1
350 2451 1
350 2714 1
350 3116 1
351 60 1
351 277 1
351 721 1
351 1032 1
351 1143 1
351 1431 1
351 1701 1
351 2073 1
351 2280 1
351 2452 1
351 2893 1
351 3117 1
352 61 1
352 278 1
352 633 1
352 1033 1
352 1144 1
352 1432 1
352 1702 1
352 2074 1
352 2281 1
352 2453 1
352 2805 1
352 3118 1
353 62 1
353 279 1
353 545 1
353 1034 1
353 1145 1
353 1433 1
353 1703 1
353 2075 1
353 2282 1
353 2454 1
353 2717 1
353 3119 1
354 63 1
354 280 1
354 724 1
354 1035 1
354 1146 1
354 1434 1
354 1704 1
354 2076 1
354 2283 1
354 2455 1
354 2896 1
354 3120 1
355 64 1
355 281 1
355 636 1
355 1036 1
355 1147 1
355 1435 1
355 1705 1
355 2077 1
355 2284 1
355 2456 1
355 2808 1
355 3121 1
356 65 1
356 282 1
356 548 1
356 1037 1
356 1148 1
356 1436 1
356 1706 1
356 2078 1
356 2285 1
356 2457 1
356 2720 1
356 3122 1
357 66 1
357 283 1
357 727 1
357 1038 1
357 1149 1
357 1437 1
357 1707 1
357 2079 1
357 2286 1
357 2458 1
357 2899 1
357 3123 1
358 67 1
358 284 1
358 639 1
358 1039 1
358 1150 1
358 1438 1
358 1708 1
358 2080 1
358 2287 1
358 2459 1
358 2811 1
358 3124 1
359 68 1
359 285 1
359 551 1
359 1040 1
359 1151 1
359 1439 1
359 1709 1
359 2081 1
359 2288 1
359 2460 1
359 2723 1
359 3125 1
360 69 1
360 286 1
360 730 1
360 1041 1
360 1152 1
360 1440 1
360 1710 1
360 2082 1
360 2289 1
360 2461 1
360 2902 1
360 3126 1
361 70 1
361 287 1
361 642 1
361 1042 1
361 1153 1
361 1441 1
361 1711 1
361 2083 1
361 2290 1
361 2462 1
361 2814 1
361 3127 1
362 71 1
362 288 1
362 554 1
362 1043 1
362 1154 1
362 1442 1
362 1712 1
362 2084 1
362 2291 1
362 2463 1
362 2726 1
362 3128 1
363 72 1
363 289 1
363 733 1
363 1044 1
363 1155 1
363 1443 1
363 1713 1
363 2085 1
363 2292 1
363 2464 1
363 2905 1
363 3129 1
364 73 1
364 290 1
364 645 1
364 1045 1
364 1156 1
364 1444 1
364 1714 1
364 2086 1
364 2293 1
364 2465 1
364 2817 1
364 3130 1
365 74 1
365 291 1
365 557 1
365 1046 1
365 1157 1
365 1445 1
365 1715 1
365 2087 1
365 2294 1
365 2466 1
365 2729 1
365 3131 1
366 75 1
366 292 1
366 736 1
366 1047 1
366 1158 1
366 1446 1
366 1716 1
366 2088 1
366 2295 1
366 2467 1
366 2908 1
366 3132 1
367 76 1
367 293 1
367 648 1
367 1048 1
367 1159 1
367 1447 1
367 1717 1
367 2089 1
367 2296 1
367 2468 1
367 2820 1
367 3133 1
368 77 1
368 294 1
368 560 1
368 1049 1
368 1160 1
368 1448 1
368 1718 1
368 2090 1
368 2297 1
368 2469 1
368 2732 1
368 3134 1
369 78 1
369 295 1
369 739 1
369 1050 1
369 1161 1
369 1449 1
369 1719 1
369 2091 1
369 2298 1
369 2470 1
369 2911 1
369 3135 1
370 79 1
370 296 1
370 651 1
370 1051 1
370 1162 1
370 1450 1
370 1720 1
370 2092 1
370 2299 1
370 2471 1
370 2823 1
370 3136 1
371 80 1
371 297 1
371 563 1
371 1052 1
371 1163 1
371 1451 1
371 1721 1
371 2093 1
371 2300 1
371 2472 1
371 2735 1
371 3137 1
372 81 1
372 298 1
372 742 1
372 1053 1
372 1164 1
372 1452 1
372 1722 1
372 2094 1
372 2301 1
372 2473 1
372 2914 1
372 3138 1
373 82 1
373 299 1
373 654 1
373 1054 1
373 1165 1
373 1453 1
373 1723 1
373 2095 1
373 2302 1
373 2474 1
373 2826 1
373 3139 1
374 83 1
374 300 1
374 566 1
374 1055 1
374 1166 1
374 1454 1
374 1724 1
374 2096 1
374 2303 1
374 2475 1
374 2738 1
374 3140 1
375 84 1
375 301 1
375 745 1
375 1056 1
375 1167 1
375 1455 1
375 1725 1
375 2097 1
375 2304 1
375 2476 1
375 2917 1
375 3141 1
376 85 1
376 302 1
376 657 1
376 1057 1
376 1168 1
376 1456 1
376 1726 1
376 2098 1
376 2305 1
376 2477 1
376 2829 1
376 3142 1
377 86 1
377 303 1
377 569 1
377 1058 1
377 1169 1
377 1457 1
377 1727 1
377 2099 1
377 2306 1
377 2478 1
377 2741 1
377 3143 1
378 87 1
378 304 1
378 748 1
378 1059 1
378 1170 1
378 1458 1
378 1728 1
378 2100 1
378 2307 1
378 2479 1
378 2920 1
378 3144 1
379 88 1
379 305 1
379 660 1
379 1060 1
379 1171 1
379 1459 1
379 1729 1
379 2101 1
379 2308 1
379 2480 1
379 2832 1
379 3145 1
380 89 1
380 306 1
380 572 1
380 1061 1
380 1172 1
380 1460 1
380 1730 1
380 2102 1
380 2309 1
380 2481 1
380 2744 1
380 3146 1
381 90 1
381 307 1
381 751 1
381 1062 1
381 1173 1
381 1461 1
381 1731 1
381 2103 1
381 2310 1
381 2482 1
381 2923 1
381 3147 1
382 91 1
382 308 1
382 663 1
382 1063 1
382 1174 1
382 1462 1
382 1732 1
382 2104 1
382 2311 1
382 2483 1
382 2835 1
382 3148 1
383 92 1
383 309 1
383 575 1
383 1064 1
383 1175 1
383 1463 1
383 1733 1
383 2105 1
383 2312 1
383 2484 1
383 2747 1
383 3149 1
384 93 1
384 310 1
384 754 1
384 1065 1
384 1176 1
384 1464 1
384 1734 1
384 2106 1
384 2313 1
384 2485 1
384 2926 1
384 3150 1
385 94 1
385 311 1
385 666 1
385 1066 1
385 1177 1
385 1465 1
385 1735 1
385 2107 1
385 2314 1
385 2486 1
385 2838 1
385 3151 1
386 95 1
386 312 1
386 578 1
386 1067 1
386 1178 1
386 1466 1
386 1736 1
386 2108 1
386 2315 1
386 2487 1
386 2750 1
386 3152 1
387 96 1
387 313 1
387 757 1
387 1068 1
387 1179 1
387 1467 1
387 1737 1
387 2109 1
387 2316 1
387 2488 1
387 2929 1
387 3153 1
388 97 1
388 314 1
388 669 1
388 802 1
388 1180 1
388 1468 1
388 1738 1
388 2110 1
388 2317 1
388 2489 1
388 2841 1
388 3154 1
389 98 1
389 315 1
389 581 1
389 803 1
389 1181 1
389 1469 1
389 1739 1
389 2111 1
389 2318 1
389 2490 1
389 2753 1
389 3155 1
390 99 1
390 316 1
390 760 1
390 804 1
390 1182 1
390 1470 1
390 1740 1
390 2112 1
390 2319 1
390 2491 1
390 2932 1
390 3156 1
391 100 1
391 317 1
391 672 1
391 805 1
391 1183 1
391 1471 1
391 1741 1
391 2113 1
391 2320 1
391 2492 1
391 2844 1
391 3157 1
392 101 1
392 318 1
392 584 1
392 806 1
392 1184 1
392 1472 1
392 1742 1
392 2114 1
392 2321 1
392 2493 1
392 2756 1
392 3158 1
393 102 1
393 319 1
393 763 1
393 807 1
393 1185 1
393 1473 1
393 1743 1
393 2115 1
393 2322 1
393 2494 1
393 2935 1
393 3159 1
394 103 1
394 320 1
394 675 1
394 808 1
394 1186 1
394 1474 1
394 1744 1
394 2116 1
394 2323 1
394 2495 1
394 2847 1
394 3160 1
395 104 1
395 321 1
395 587 1
395 809 1
395 1187 1
395 1475 1
395 1745 1
395 2117 1
395 2324 1
395 2496 1
395 2759 1
395 3161 1
396 105 1
396 322 1
396 766 1
396 810 1
396 1188 1
396 1476 1
396 1746 1
396 2118 1
396 2325 1
396 2497 1
396 2671 1
396 3162 1
397 106 1
397 323 1
397 678 1
397 811 1
397 1189 1
397 1477 1
397 1747 1
397 2119 1
397 2326 1
397 2498 1
397 2850 1
397 3163 1
398 107 1
398 324 1
398 590 1
398 812 1
398 1190 1
398 1478 1
398 1748 1
398 2120 1
398 2327 1
398 2499 1
398 2762 1
398 3164 1
399 108 1
399 325 1
399 769 1
399 813 1
399 1191 1
399 1479 1
399 1749 1
399 2121 1
399 2328 1
399 2500 1
399 2674 1
399 3165 1
400 109 1
400 326 1
400 681 1
400 814 1
400 1192 1
400 1480 1
400 1750 1
400 2122 1
400 2329 1
400 2501 1
400 2853 1
400 3166 1
401 110 1
401 327 1
401 593 1
401 815 1
401 1193 1
401 1481 1
401 1751 1
401 2123 1
401 2330 1
401 2502 1
401 2765 1
401 3167 1
402 111 1
402 328 1
402 772 1
402 816 1
402 1194 1
402 1482 1
402 1752 1
402 2124 1
402 2331 1
402 2503 1
402 2677 1
402 3168 1
403 112 1
403 329 1
403 684 1
403 817 1
403 1195 1
403 1483 1
403 1753 1
403 2125 1
403 2332 1
403 2504 1
403 2856 1
403 3169 1
404 113 1
404 330 1
404 596 1
404 818 1
404 1196 1
404 1484 1
404 1754 1
404 2126 1
404 2333 1
404 2505 1
404 2768 1
404 3170 1
405 114 1
405 331 1
405 775 1
405 819 1
405 1197 1
405 1485 1
405 1755 1
405 2127 1
405 2334 1
405 2506 1
405 2680 1
405 3171 1
406 115 1
406 332 1
406 687 1
406 820 1
406 1198 1
406 1486 1
406 1756 1
406 2128 1
406 2335 1
406 2507 1
406 2859 1
406 3172 1
407 116 1
407 333 1
407 599 1
407 821 1
407 1199 1
407 1487 1
407 1757 1
407 2129 1
407 2336 1
407 2508 1
407 2771 1
407 3173 1
408 117 1
408 334 1
408 778 1
408 822 1
408 1200 1
408 1488 1
408 1758 1
408 2130 1
408 2337 1
408 2509 1
408 2683 1
408 3174 1
409 118 1
409 335 1
409 690 1
409 823 1
409 1201 1
409 1489 1
409 1759 1
409 2131 1
409 2338 1
409 2510 1
409 2862 1
409 3175 1
410 119 1
410 336 1
410 602 1
410 824 1
410 1202 1
410 1490 1
410 1760 1
410 2132 1
410 2339 1
410 2511 1
410 2774 1
410 3176 1
411 120 1
411 337 1
411 781 1
411 825 1
411 1203 1
411 1491 1
411 1761 1
411 2133 1
411 2340 1
411 2512 1
411 2686 1
411 3177 1
412 121 1
412 338 1
412 693 1
412 826 1
412 1204 1
412 1492 1
412 1762 1
412 2134 1
412 2341 1
412 2513 1
412 2865 1
412 3178 1
413 122 1
413 339 1
413 605 1
413 827 1
413 1205 1
413 1493 1
413 1763 1
413 2135 1
413 2342 1
413 2514 1
413 2777 1
413 3179 1
414 123 1
414 340 1
414 784 1
414 828 1
414 1206 1
414 1494 1
414 1764 1
414 2136 1
414 2343 1
414 2515 1
414 2689 1
414 3180 1
415 124 1
415 341 1
415 696 1
415 829 1
415 1207 1
415 1495 1
415 1765 1
415 1870 1
415 2344 1
415 2516 1
415 2868 1
415 3181 1
416 125 1
416 342 1
416 608 1
416 830 1
416 1208 1
416 1496 1
416 1766 1
416 1871 1
416 2345 1
416 2517 1
416 2780 1
416 3182 1
417 126 1
417 343 1
417 787 1
417 831 1
417 1209 1
417 1497 1
417 1767 1
417 1872 1
417 2346 1
417 2518 1
417 2692 1
417 3183 1
418 127 1
418 344 1
418 699 1
418 832 1
418 1210 1
418 1498 1
418 1768 1
418 1873 1
418 2347 1
418 2519 1
418 2871 1
418 3184 1
419 128 1
419 345 1
419 611 1
419 833 1
419 1211 1
419 1499 1
419 1769 1
419 1874 1
419 2348 1
419 2520 1
419 2783 1
419 3185 1
420 129 1
420 346 1
420 790 1
420 834 1
420 1212 1
420 1500 1
420 1770 1
420 1875 1
420 2349 1
420 2521 1
420 2695 1
420 3186 1
421 130 1
421 347 1
421 702 1
421 835 1
421 1213 1
421 1501 1
421 1771 1
421 1876 1
421 2350 1
421 2522 1
421 2874 1
421 3187 1
422 131 1
422 348 1
422 614 1
422 836 1
422 1214 1
422 1502 1
422 1772 1
422 1877 1
422 2351 1
422 2523 1
422 2786 1
422 3188 1
423 132 1
423 349 1
423 793 1
423 837 1
423 1215 1
423 1503 1
423 1773 1
423 1878 1
423 2352 1
423 2524 1
423 2698 1
423 3189 1
424 133 1
424 350 1
424 705 1
424 838 1
424 1216 1
424 1504 1
424 1774 1
424 1879 1
424 2353 1
424 2525 1
424 2877 1
424 3190 1
425 134 1
425 351 1
425 617 1
425 839 1
425 1217 1
425 1505 1
425 1775 1
425 1880 1
425 2354 1
425 2526 1
425 2789 1
425 3191 1
426 135 1
426 352 1
426 796 1
426 840 1
426 1218 1
426 1506 1
426 1776 1
426 1881 1
426 2355 1
426 2527 1
426 2701 1
426 3192 1
427 136 1
427 353 1
427 708 1
427 841 1
427 1219 1
427 1507 1
427 1777 1
427 1882 1
427 2356 1
427 2528 1
427 2880 1
427 3193 1
428 137 1
428 354 1
428 620 1
428 842 1
428 1220 1
428 1508 1
428 1778 1
428 1883 1
428 2357 1
428 2529 1
428 2792 1
428 3194 1
429 138 1
429 355 1
429 799 1
429 843 1
429 1221 1
429 1509 1
429 1779 1
429 1884 1
429 2358 1
429 2530 1
429 2704 1
429 3195 1
430 139 1
430 356 1
430 711 1
430 844 1
430 1222 1
430 1510 1
430 1780 1
430 1885 1
430 2359 1
430 2531 1
430 2883 1
430 3196 1
431 140 1
431 357 1
431 623 1
431 845 1
431 1223 1
431 1511 1
431 1781 1
431 1886 1
431 2360 1
431 2532 1
431 2795 1
431 3197 1
432 141 1
432 358 1
432 535 1
432 846 1
432 1224 1
432 1512 1
432 1782 1
432 1887 1
432 2361 1
432 2533 1
432 2707 1
432 3198 1
433 142 1
433 359 1
433 714 1
433 847 1
433 1225 1
433 1513 1
433 1783 1
433 1888 1
433 2362 1
433 2534 1
433 2886 1
433 3199 1
434 143 1
434 360 1
434 626 1
434 848 1
434 1226 1
434 1514 1
434 1784 1
434 1889 1
434 2363 1
434 2535 1
434 2798 1
434 3200 1
435 144 1
435 361 1
435 538 1
435 849 1
435 1227 1
435 1515 1
435 1785 1
435 1890 1
435 2364 1
435 2536 1
435 2710 1
435 3201 1
436 145 1
436 362 1
436 717 1
436 850 1
436 1228 1
436 1516 1
436 1786 1
436 1891 1
436 2365 1
436 2537 1
436 2889 1
436 3202 1
437 146 1
437 363 1
437 629 1
437 851 1
437 1229 1
437 1517 1
437 1787 1
437 1892 1
437 2366 1
437 2538 1
437 2801 1
437 3203 1
438 147 1
438 364 1
438 541 1
438 852 1
438 1230 1
438 1518 1
438 1788 1
438 1893 1
438 2367 1
438 2539 1
438 2713 1
438 3204 1
439 148 1
439 365 1
439 720 1
439 853 1
439 1231 1
439 1519 1
439 1789 1
439 1894 1
439 2368 1
439 2540 1
439 2892 1
439 2938 1
440 149 1
440 366 1
440 632 1
440 854 1
440 1232 1
440 1520 1
440 1790 1
440 1895 1
440 2369 1
440 2541 1
440 2804 1
440 2939 1
441 150 1
441 367 1
441 544 1
441 855 1
441 1233 1
441 1521 1
441 1791 1
441 1896 1
441 2370 1
441 2542 1
441 2716 1
441 2940 1
442 151 1
442 368 1
442 723 1
442 856 1
442 1234 1
442 1522 1
442 1792 1
442 1897 1
442 2371 1
442 2543 1
442 2895 1
442 2941 1
443 152 1
443 369 1
443 635 1
443 857 1
443 1235 1
443 1523 1
443 1793 1
443 1898 1
443 2372 1
443 2544 1
443 2807 1
443 2942 1
444 153 1
444 370 1
444 547 1
444 858 1
444 1236 1
444 1524 1
444 1794 1
444 1899 1
444 2373 1
444 2545 1
444 2719 1
444 2943 1
445 154 1
445 371 1
445 726 1
445 859 1
445 1237 1
445 1525 1
445 1795 1
445 1900 1
445 2374 1
445 2546 1
445 2898 1
445 2944 1
446 155 1
446 372 1
446 638 1
446 860 1
446 1238 1
446 1526 1
446 1796 1
446 1901 1
446 2375 1
446 2547 1
446 2810 1
446 2945 1
447 156 1
447 373 1
447 550 1
447 861 1
447 1239 1
447 1527 1
447 1797 1
447 1902 1
447 2376 1
447 2548 1
447 2722 1
447 2946 1
448 157 1
448 374 1
448 729 1
448 862 1
448 1240 1
448 1528 1
448 1798 1
448 1903 1
448 2377 1
448 2549 1
448 2901 1
448 2947 1
449 158 1
449 375 1
449 641 1
449 863 1
449 1241 1
449 1529 1
449 1799 1
449 1904 1
449 2378 1
449 2550 1
449 2813 1
449 2948 1
450 159 1
450 376 1
450 553 1
450 864 1
450 1242 1
450 1530 1
450 1800 1
450 1905 1
450 2379 1
450 2551 1
450 2725 1
450 2949 1
451 160 1
451 377 1
451 732 1
451 865 1
451 1243 1
451 1531 1
451 1801 1
451 1906 1
451 2380 1
451 2552 1
451 2904 1
451 2950 1
452 161 1
452 378 1
452 644 1
452 866 1
452 1244 1
452 1532 1
452 1802 1
452 1907 1
452 2381 1
452 2553 1
452 2816 1
452 2951 1
453 162 1
453 379 1
453 556 1
453 867 1
453 1245 1
453 1533 1
453 1803 1
453 1908 1
453 2382 1
453 2554 1
453 2728 1
453 2952 1
454 163 1
454 380 1
454 735 1
454 868 1
454 1246 1
454 1534 1
454 1804 1
454 1909 1
454 2383 1
454 2555 1
454 2907 1
454 2953 1
455 164 1
455 381 1
455 647 1
455 869 1
455 1247 1
455 1535 1
455 1805 1
455 1910 1
455 2384 1
455 2556 1
455 2819 1
455 2954 1
456 165 1
456 382 1
456 559 1
456 870 1
456 1248 1
456 1536 1
456 1806 1
456 1911 1
456 2385 1
456 2557 1
456 2731 1
456 2955 1
457 166 1
457 383 1
457 738 1
457 871 1
457 1249 1
457 1537 1
457 1807 1
457 1912 1
457 2386 1
457 2558 1
457 2910 1
457 2956 1
458 167 1
458 384 1
458 650 1
458 872 1
458 1250 1
458 1538 1
458 1808 1
458 1913 1
458 2387 1
458 2559 1
458 2822 1
458 2957 1
459 168 1
459 385 1
459 562 1
459 873 1
459 1251 1
459 1539 1
459 1809 1
459 1914 1
459 2388 1
459 2560 1
459 2734 1
459 2958 1
460 169 1
460 386 1
460 741 1
460 874 1
460 1252 1
460 1540 1
460 1810 1
460 1915 1
460 2389 1
460 2561 1
460 2913 1
460 2959 1
461 170 1
461 387 1
461 653 1
461 875 1
461 1253 1
461 1541 1
461 1811 1
461 1916 1
461 2390 1
461 2562 1
461 2825 1
461 2960 1
462 171 1
462 388 1
462 565 1
462 876 1
462 1254 1
462 1542 1
462 1812 1
462 1917 1
462 2391 1
462 2563 1
462 2737 1
462 2961 1
463 172 1
463 389 1
463 744 1
463 877 1
463 1255 1
463 1543 1
463 1813 1
463 1918 1
463 2392 1
463 2564 1
463 2916 1
463 2962 1
464 173 1
464 390 1
464 656 1
464 878 1
464 1256 1
464 1544 1
464 1814 1
464 1919 1
464 2393 1
464 2565 1
464 2828 1
464 2963 1
465 174 1
465 391 1
465 568 1
465 879 1
465 1257 1
465 1545 1
465 1815 1
465 1920 1
465 2394 1
465 2566 1
465 2740 1
465 2964 1
466 175 1
466 392 1
466 747 1
466 880 1
466 1258 1
466 1546 1
466 1816 1
466 1921 1
466 2395 1
466 2567 1
466 2919 1
466 2965 1
467 176 1
467 393 1
467 659 1
467 881 1
467 1259 1
467 1547 1
467 1817 1
467 1922 1
467 2396 1
467 2568 1
467 2831 1
467 2966 1
468 177 1
468 394 1
468 571 1
468 882 1
468 1260 1
468 1548 1
468 1818 1
468 1923 1
468 2397 1
468 2569 1
468 2743 1
468 2967 1
469 178 1
469 395 1
469 750 1
469 883 1
469 1261 1
469 1549 1
469 1819 1
469 1924 1
469 2398 1
469 2570 1
469 2922 1
469 2968 1
470 179 1
470 396 1
470 662 1
470 884 1
470 1262 1
470 1550 1
470 1820 1
470 1925 1
470 2399 1
470 2571 1
470 2834 1
470 2969 1
471 180 1
471 397 1
471 574 1
471 885 1
471 1263 1
471 1551 1
471 1821 1
471 1926 1
471 2400 1
471 2572 1
471 2746 1
471 2970 1
472 181 1
472 398 1
472 753 1
472 886 1
472 1264 1
472 1552 1
472 1822 1
472 1927 1
472 2401 1
472 2573 1
472 2925 1
472 2971 1
473 182 1
473 399 1
473 665 1
473 887 1
473 1265 1
473 1553 1
473 1823 1
473 1928 1
473 2402 1
473 2574 1
473 2837 1
473 2972 1
474 183 1
474 400 1
474 577 1
474 888 1
474 1266 1
474 1554 1
474 1824 1
474 1929 1
474 2403 1
474 2575 1
474 2749 1
474 2973 1
475 184 1
475 401 1
475 756 1
475 889 1
475 1267 1
475 1555 1
475 1825 1
475 1930 1
475 2137 1
475 2576 1
475 2928 1
475 2974 1
476 185 1
476 402 1
476 668 1
476 890 1
476 1268 1
476 1556 1
476 1826 1
476 1931 1
476 2138 1
476 2577 1
476 2840 1
476 2975 1
477 186 1
477 403 1
477 580 1
477 891 1
477 1269 1
477 1557 1
477 1827 1
477 1932 1
477 2139 1
477 2578 1
477 2752 1
477 2976 1
478 187 1
478 404 1
478 759 1
478 892 1
478 1270 1
478 1558 1
478 1828 1
478 1933 1
478 2140 1
478 2579 1
478 2931 1
478 2977 1
479 188 1
479 405 1
479 671 1
479 893 1
479 1271 1
479 1559 1
479 1829 1
479 1934 1
479 2141 1
479 2580 1
479 2843 1
479 2978 1
480 189 1
480 406 1
480 583 1
480 894 1
480 1272 1
480 1560 1
480 1830 1
480 1935 1
480 2142 1
480 2581 1
480 2755 1
480 2979 1
481 190 1
481 407 1
481 762 1
481 895 1
481 1273 1
481 1561 1
481 1831 1
481 1936 1
481 2143 1
481 2582 1
481 2934 1
481 2980 1
482 191 1
482 408 1
482 674 1
482 896 1
482 1274 1
482 1562 1
482 1832 1
482 1937 1
482 2144 1
482 2583 1
482 2846 1
482 2981 1
483 192 1
483 409 1
483 586 1
483 897 1
483 1275 1
483 1563 1
483 1833 1
483 1938 1
483 2145 1
483 2584 1
483 2758 1
483 2982 1
484 193 1
484 410 1
484 765 1
484 898 1
484 1276 1
484 1564 1
484 1834 1
484 1939 1
484 2146 1
484 2585 1
484 2937 1
484 2983 1
485 194 1
485 411 1
485 677 1
485 899 1
485 1277 1
485 1565 1
485 1835 1
485 1940 1
485 2147 1
485 2586 1
485 2849 1
485 2984 1
486 195 1
486 412 1
486 589 1
486 900 1
486 1278 1
486 1566 1
486 1836 1
486 1941 1
486 2148 1
486 2587 1
486 2761 1
486 2985 1
487 196 1
487 413 1
487 768 1
487 901 1
487 1279 1
487 1567 1
487 1837 1
487 1942 1
487 2149 1
487 2588 1
487 2673 1
487 2986 1
488 197 1
488 414 1
488 680 1
488 902 1
488 1280 1
488 1568 1
488 1838 1
488 1943 1
488 2150 1
488 2589 1
488 2852 1
488 2987 1
489 198 1
489 415 1
489 592 1
489 903 1
489 1281 1
489 1569 1
489 1839 1
489 1944 1
489 2151 1
489 2590 1
489 2764 1
489 2988 1
490 199 1
490 416 1
490 771 1
490 904 1
490 1282 1
490 1570 1
490 1840 1
490 1945 1
490 2152 1
490 2591 1
490 2676 1
490 2989 1
491 200 1
491 417 1
491 683 1
491 905 1
491 1283 1
491 1571 1
491 1841 1
491 1946 1
491 2153 1
491 2592 1
491 2855 1
491 2990 1
492 201 1
492 418 1
492 595 1
492 906 1
492 1284 1
492 1572 1
492 1842 1
492 1947 1
492 2154 1
492 2593 1
492 2767 1
492 2991 1
493 202 1
493 419 1
493 774 1
493 907 1
493 1285 1
493 1573 1
493 1843 1
493 1948 1
493 2155 1
493 2594 1
493 2679 1
493 2992 1
494 203 1
494 420 1
494 686 1
494 908 1
494 1286 1
494 1574 1
494 1844 1
494 1949 1
494 2156 1
494 2595 1
494 2858 1
494 2993 1
495 204 1
495 421 1
495 598 1
495 909 1
495 1287 1
495 1575 1
495 1845 1
495 1950 1
495 2157 1
495 2596 1
495 2770 1
495 2994 1
496 205 1
496 422 1
496 777 1
496 910 1
496 1288 1
496 1576 1
496 1846 1
496 1951 1
496 2158 1
496 2597 1
496 2682 1
496 2995 1
497 206 1
497 423 1
497 689 1
497 911 1
497 1289 1
497 1577 1
497 1847 1
497 1952 1
497 2159 1
497 2598 1
497 2861 1
497 2996 1
498 207 1
498 424 1
498 601 1
498 912 1
498 1290 1
498 1578 1
498 1848 1
498 1953 1
498 2160 1
498 2599 1
498 2773 1
498 2997 1
499 208 1
499 425 1
499 780 1
499 913 1
499 1291 1
499 1579 1
499 1849 1
499 1954 1
499 2161 1
499 2600 1
499 2685 1
499 2998 1
500 209 1
500 426 1
500 692 1
500 914 1
500 1292 1
500 1580 1
500 1850 1
500 1955 1
500 2162 1
500 2601 1
500 2864 1
500 2999 1
501 210 1
501 427 1
501 604 1
501 915 1
501 1293 1
501 1581 1
501 1851 1
501 1956 1
501 2163 1
501 2602 1
501 2776 1
501 3000 1
502 211 1
502 428 1
502 783 1
502 916 1
502 1294 1
502 1582 1
502 1852 1
502 1957 1
502 2164 1
502 2603 1
502 2688 1
502 3001 1
503 212 1
503 429 1
503 695 1
503 917 1
503 1295 1
503 1583 1
503 1853 1
503 1958 1
503 2165 1
503 2604 1
503 2867 1
503 3002 1
504 213 1
504 430 1
504 607 1
504 918 1
504 1296 1
504 1584 1
504 1854 1
504 1959 1
504 2166 1
504 2605 1
504 2779 1
504 3003 1
505 214 1
505 431 1
505 786 1
505 919 1
505 1297 1
505 1585 1
505 1855 1
505 1960 1
505 2167 1
505 2606 1
505 2691 1
505 3004 1
506 215 1
506 432 1
506 698 1
506 920 1
506 1298 1
506 1586 1
506 1856 1
506 1961 1
506 2168 1
506 2607 1
506 2870 1
506 3005 1
507 216 1
507 433 1
507 610 1
507 921 1
507 1299 1
507 1587 1
507 1857 1
507 1962 1
507 2169 1
507 2608 1
507 2782 1
507 3006 1
508 217 1
508 434 1
508 789 1
508 922 1
508 1300 1
508 1588 1
508 1858 1
508 1963 1
508 2170 1
508 2609 1
508 2694 1
508 3007 1
509 218 1
509 435 1
509 701 1
509 923 1
509 1301 1
509 1589 1
509 1859 1
509 1964 1
509 2171 1
509 2610 1
509 2873 1
509 3008 1
510 219 1
510 436 1
510 613 1
510 924 1
510 1302 1
510 1590 1
510 1860 1
510 1965 1
510 2172 1
510 2611 1
510 2785 1
510 3009 1
511 220 1
511 437 1
511 792 1
511 925 1
511 1303 1
511 1591 1
511 1861 1
511 1966 1
511 2173 1
511 2612 1
511 2697 1
511 3010 1
512 221 1
512 438 1
512 704 1
512 926 1
512 1304 1
512 1592 1
512 1862 1
512 1967 1
512 2174 1
512 2613 1
512 2876 1
512 3011 1
513 222 1
513 439 1
513 616 1
513 927 1
513 1305 1
513 1593 1
513 1863 1
513 1968 1
513 2175 1
513 2614 1
513 2788 1
513 3012 1
514 223 1
514 440 1
514 795 1
514 928 1
514 1306 1
514 1594 1
514 1864 1
514 1969 1
514 2176 1
514 2615 1
514 2700 1
514 3013 1
515 224 1
515 441 1
515 707 1
515 929 1
515 1307 1
515 1595 1
515 1865 1
515 1970 1
515 2177 1
515 2616 1
515 2879 1
515 3014 1
516 225 1
516 442 1
516 619 1
516 930 1
516 1308 1
516 1596 1
516 1866 1
516 1971 1
516 2178 1
516 2617 1
516 2791 1
516 3015 1
517 226 1
517 443 1
517 798 1
517 931 1
517 1309 1
517 1597 1
517 1867 1
517 1972 1
517 2179 1
517 2618 1
517 2703 1
517 3016 1
518 227 1
518 444 1
518 710 1
518 932 1
518 1310 1
518 1598 1
518 1868 1
518 1973 1
518 2180 1
518 2619 1
518 2882 1
518 3017 1
519 228 1
519 445 1
519 622 1
519 933 1
519 1311 1
519 1599 1
519 1869 1
519 1974 1
519 2181 1
519 2620 1
519 2794 1
519 3018 1
520 229 1
520 446 1
520 801 1
520 934 1
520 1312 1
520 1600 1
520 1603 1
520 1975 1
520 2182 1
520 2621 1
520 2706 1
520 3019 1
521 230 1
521 447 1
521 713 1
521 935 1
521 1313 1
521 1601 1
521 1604 1
521 1976 1
521 2183 1
521 2622 1
521 2885 1
521 3020 1
522 231 1
522 448 1
522 625 1
522 936 1
522 1314 1
522 1602 1
522 1605 1
522 1977 1
522 2184 1
522 2623 1
522 2797 1
522 3021 1
523 232 1
523 449 1
523 537 1
523 937 1
523 1315 1
523 1336 1
523 1606 1
523 1978 1
523 2185 1
523 2624 1
523 2709 1
523 3022 1
524 233 1
524 450 1
524 716 1
524 938 1
524 1316 1
524 1337 1
524 1607 1
524 1979 1
524 2186 1
524 2625 1
524 2888 1
524 3023 1
525 234 1
525 451 1
525 628 1
525 939 1
525 1317 1
525 1338 1
525 1608 1
525 1980 1
525 2187 1
525 2626 1
525 2800 1
525 3024 1
526 235 1
526 452 1
526 540 1
526 940 1
526 1318 1
526 1339 1
526 1609 1
526 1981 1
526 2188 1
526 2627 1
526 2712 1
526 3025 1
527 236 1
527 453 1
527 719 1
527 941 1
527 1319 1
527 1340 1
527 1610 1
527 1982 1
527 2189 1
527 2628 1
527 2891 1
527 3026 1
528 237 1
528 454 1
528 631 1
528 942 1
528 1320 1
528 1341 1
528 1611 1
528 1983 1
528 2190 1
528 2629 1
528 2803 1
528 3027 1
529 238 1
529 455 1
529 543 1
529 943 1
529 1321 1
529 1342 1
529 1612 1
529 1984 1
529 2191 1
529 2630 1
529 2715 1
529 3028 1
530 239 1
530 456 1
530 722 1
530 944 1
530 1322 1
530 1343 1
530 1613 1
530 1985 1
530 2192 1
530 2631 1
530 2894 1
530 3029 1
531 240 1
531 457 1
531 634 1
531 945 1
531 1323 1
531 1344 1
531 1614 1
531 1986 1
531 2193 1
531 2632 1
531 2806 1
531 3030 1
532 241 1
532 458 1
532 546 1
532 946 1
532 1324 1
532 1345 1
532 1615 1
532 1987 1
532 2194 1
532 2633 1
532 2718 1
532 3031 1
533 242 1
533 459 1
533 725 1
533 947 1
533 1325 1
533 1346 1
533 1616 1
533 1988 1
533 2195 1
533 2634 1
533 2897 1
533 3032 1
534 243 1
534 460 1
534 637 1
534 948 1
534 1326 1
534 1347 1
534 1617 1
534 1989 1
534 2196 1
534 2635 1
534 2809 1
534 3033 1
535 13 1
535 511 1
535 728 1
535 816 1
535 1216 1
535 1594 1
535 1699 1
535 1885 1
535 2257 1
535 2464 1
535 2903 1
535 2988 1
536 14 1
536 512 1
536 729 1
536 995 1
536 1217 1
536 1595 1
536 1700 1
536 1886 1
536 2258 1
536 2465 1
536 2904 1
536 3167 1
537 15 1
537 513 1
537 730 1
537 907 1
537 1218 1
537 1596 1
537 1701 1
537 1887 1
537 2259 1
537 2466 1
537 2905 1
537 3079 1
538 16 1
538 514 1
538 731 1
538 819 1
538 1219 1
538 1597 1
538 1702 1
538 1888 1
538 2260 1
538 2467 1
538 2906 1
538 2991 1
539 17 1
539 515 1
539 732 1
539 998 1
539 1220 1
539 1598 1
539 1703 1
539 1889 1
539 2261 1
539 2468 1
539 2907 1
539 3170 1
540 18 1
540 516 1
540 733 1
540 910 1
540 1221 1
540 1599 1
540 1704 1
540 1890 1
540 2262 1
540 2469 1
540 2908 1
540 3082 1
541 19 1
541 517 1
541 734 1
541 822 1
541 1222 1
541 1600 1
541 1705 1
541 1891 1
541 2263 1
541 2470 1
541 2909 1
541 2994 1
542 20 1
542 518 1
542 735 1
542 1001 1
542 1223 1
542 1601 1
542 1706 1
542 1892 1
542 2264 1
542 2471 1
542 2910 1
542 3173 1
543 21 1
543 519 1
543 736 1
543 913 1
543 1224 1
543 1602 1
543 1707 1
543 1893 1
543 2265 1
543 2472 1
543 2911 1
543 3085 1
544 22 1
544 520 1
544 737 1
544 825 1
544 1225 1
544 1336 1
544 1708 1
544 1894 1
544 2266 1
544 2473 1
544 2912 1
544 2997 1
545 23 1
545 521 1
545 738 1
545 1004 1
545 1226 1
545 1337 1
545 1709 1
545 1895 1
545 2267 1
545 2474 1
545 2913 1
545 3176 1
546 24 1
546 522 1
546 739 1
546 916 1
546 1227 1
546 1338 1
546 1710 1
546 1896 1
546 2268 1
546 2475 1
546 2914 1
546 3088 1
547 25 1
547 523 1
547 740 1
547 828 1
547 1228 1
547 1339 1
547 1711 1
547 1897 1
547 2269 1
547 2476 1
547 2915 1
547 3000 1
548 26 1
548 524 1
548 741 1
548 1007 1
548 1229 1
548 1340 1
548 1712 1
548 1898 1
548 2270 1
548 2477 1
548 2916 1
548 3179 1
549 27 1
549 525 1
549 742 1
549 919 1
549 1230 1
549 1341 1
549 1713 1
549 1899 1
549 2271 1
549 2478 1
549 2917 1
549 3091 1
550 28 1
550 526 1
550 743 1
550 831 1
550 1231 1
550 1342 1
550 1714 1
550 1900 1
550 2272 1
550 2479 1
550 2918 1
550 3003 1
551 29 1
551 527 1
551 744 1
551 1010 1
551 1232 1
551 1343 1
551 1715 1
551 1901 1
551 2273 1
551 2480 1
551 2919 1
551 3182 1
552 30 1
552 528 1
552 745 1
552 922 1
552 1233 1
552 1344 1
552 1716 1
552 1902 1
552 2274 1
552 2481 1
552 2920 1
552 3094 1
553 31 1
553 529 1
553 746 1
553 834 1
553 1234 1
553 1345 1
553 1717 1
553 1903 1
553 2275 1
553 2482 1
553 2921 1
553 3006 1
554 32 1
554 530 1
554 747 1
554 1013 1
554 1235 1
554 1346 1
554 1718 1
554 1904 1
554 2276 1
554 2483 1
554 2922 1
554 3185 1
555 33 1
555 531 1
555 748 1
555 925 1
555 1236 1
555 1347 1
555 1719 1
555 1905 1
555 2277 1
555 2484 1
555 2923 1
555 3097 1
556 34 1
556 532 1
556 749 1
556 837 1
556 1237 1
556 1348 1
556 1720 1
556 1906 1
556 2278 1
556 2485 1
556 2924 1
556 3009 1
557 35 1
557 533 1
557 750 1
557 1016 1
557 1238 1
557 1349 1
557 1721 1
557 1907 1
557 2279 1
557 2486 1
557 2925 1
557 3188 1
558 36 1
558 534 1
558 751 1
558 928 1
558 1239 1
558 1350 1
558 1722 1
558 1908 1
558 2280 1
558 2487 1
558 2926 1
558 3100 1
559 37 1
559 268 1
559 752 1
559 840 1
559 1240 1
559 1351 1
559 1723 1
559 1909 1
559 2281 1
559 2488 1
559 2927 1
559 3012 1
560 38 1
560 269 1
560 753 1
560 1019 1
560 1241 1
560 1352 1
560 1724 1
560 1910 1
560 2282 1
560 2489 1
560 2928 1
560 3191 1
561 39 1
561 270 1
561 754 1
561 931 1
561 1242 1
561 1353 1
561 1725 1
561 1911 1
561 2283 1
561 2490 1
561 2929 1
561 3103 1
562 40 1
562 271 1
562 755 1
562 843 1
562 1243 1
562 1354 1
562 1726 1
562 1912 1
562 2284 1
562 2491 1
562 2930 1
562 3015 1
563 41 1
563 272 1
563 756 1
563 1022 1
563 1244 1
563 1355 1
563 1727 1
563 1913 1
563 2285 1
563 2492 1
563 2931 1
563 3194 1
564 42 1
564 273 1
564 757 1
564 934 1
564 1245 1
564 1356 1
564 1728 1
564 1914 1
564 2286 1
564 2493 1
564 2932 1
564 3106 1
565 43 1
565 274 1
565 758 1
565 846 1
565 1246 1
565 1357 1
565 1729 1
565 1915 1
565 2287 1
565 2494 1
565 2933 1
565 3018 1
566 44 1
566 275 1
566 759 1
566 1025 1
566 1247 1
566 1358 1
566 1730 1
566 1916 1
566 2288 1
566 2495 1
566 2934 1
566 3197 1
567 45 1
567 276 1
567 760 1
567 937 1
567 1248 1
567 1359 1
567 1731 1
567 1917 1
567 2289 1
567 2496 1
567 2935 1
567 3109 1
568 46 1
568 277 1
568 761 1
568 849 1
568 1249 1
568 1360 1
568 1732 1
568 1918 1
568 2290 1
568 2497 1
568 2936 1
568 3021 1
569 47 1
569 278 1
569 762 1
569 1028 1
569 1250 1
569 1361 1
569 1733 1
569 1919 1
569 2291 1
569 2498 1
569 2937 1
569 3200 1
570 48 1
570 279 1
570 763 1
570 940 1
570 1251 1
570 1362 1
570 1734 1
570 1920 1
570 2292 1
570 2499 1
570 2671 1
570 3112 1
571 49 1
571 280 1
571 764 1
571 852 1
571 1252 1
571 1363 1
571 1735 1
571 1921 1
571 2293 1
571 2500 1
571 2672 1
571 3024 1
572 50 1
572 281 1
572 765 1
572 1031 1
572 1253 1
572 1364 1
572 1736 1
572 1922 1
572 2294 1
572 2501 1
572 2673 1
572 3203 1
573 51 1
573 282 1
573 766 1
573 943 1
573 1254 1
573 1365 1
573 1737 1
573 1923 1
573 2295 1
573 2502 1
573 2674 1
573 3115 1
574 52 1
574 283 1
574 767 1
574 855 1
574 1255 1
574 1366 1
574 1738 1
574 1924 1
574 2296 1
574 2503 1
574 2675 1
574 3027 1
575 53 1
575 284 1
575 768 1
575 1034 1
575 1256 1
575 1367 1
575 1739 1
575 1925 1
575 2297 1
575 2504 1
575 2676 1
575 2939 1
576 54 1
576 285 1
576 769 1
576 946 1
576 1257 1
576 1368 1
576 1740 1
576 1926 1
576 2298 1
576 2505 1
576 2677 1
576 3118 1
577 55 1
577 286 1
577 770 1
577 858 1
577 1258 1
577 1369 1
577 1741 1
577 1927 1
577 2299 1
577 2506 1
577 2678 1
577 3030 1
578 56 1
578 287 1
578 771 1
578 1037 1
578 1259 1
578 1370 1
578 1742 1
578 1928 1
578 2300 1
578 2507 1
578 2679 1
578 2942 1
579 57 1
579 288 1
579 772 1
579 949 1
579 1260 1
579 1371 1
579 1743 1
579 1929 1
579 2301 1
579 2508 1
579 2680 1
579 3121 1
580 58 1
580 289 1
580 773 1
580 861 1
580 1261 1
580 1372 1
580 1744 1
580 1930 1
580 2302 1
580 2509 1
580 2681 1
580 3033 1
581 59 1
581 290 1
581 774 1
581 1040 1
581 1262 1
581 1373 1
581 1745 1
581 1931 1
581 2303 1
581 2510 1
581 2682 1
581 2945 1
582 60 1
582 291 1
582 775 1
582 952 1
582 1263 1
582 1374 1
582 1746 1
582 1932 1
582 2304 1
582 2511 1
582 2683 1
582 3124 1
583 61 1
583 292 1
583 776 1
583 864 1
583 1264 1
583 1375 1
583 1747 1
583 1933 1
583 2305 1
583 2512 1
583 2684 1
583 3036 1
584 62 1
584 293 1
584 777 1
584 1043 1
584 1265 1
584 1376 1
584 1748 1
584 1934 1
584 2306 1
584 2513 1
584 2685 1
584 2948 1
585 63 1
585 294 1
585 778 1
585 955 1
585 1266 1
585 1377 1
585 1749 1
585 1935 1
585 2307 1
585 2514 1
585 2686 1
585 3127 1
586 64 1
586 295 1
586 779 1
586 867 1
586 1267 1
586 1378 1
586 1750 1
586 1936 1
586 2308 1
586 2515 1
586 2687 1
586 3039 1
587 65 1
587 296 1
587 780 1
587 1046 1
587 1268 1
587 1379 1
587 1751 1
587 1937 1
587 2309 1
587 2516 1
587 2688 1
587 2951 1
588 66 1
588 297 1
588 781 1
588 958 1
588 1269 1
588 1380 1
588 1752 1
588 1938 1
588 2310 1
588 2517 1
588 2689 1
588 3130 1
589 67 1
589 298 1
589 782 1
589 870 1
589 1270 1
589 1381 1
589 1753 1
589 1939 1
589 2311 1
589 2518 1
589 2690 1
589 3042 1
590 68 1
590 299 1
590 783 1
590 1049 1
590 1271 1
590 1382 1
590 1754 1
590 1940 1
590 2312 1
590 2519 1
590 2691 1
590 2954 1
591 69 1
591 300 1
591 784 1
591 961 1
591 1272 1
591 1383 1
591 1755 1
591 1941 1
591 2313 1
591 2520 1
591 2692 1
591 3133 1
592 70 1
592 301 1
592 785 1
592 873 1
592 1273 1
592 1384 1
592 1756 1
592 1942 1
592 2314 1
592 2521 1
592 2693 1
592 3045 1
593 71 1
593 302 1
593 786 1
593 1052 1
593 1274 1
593 1385 1
593 1757 1
593 1943 1
593 2315 1
593 2522 1
593 2694 1
593 2957 1
594 72 1
594 303 1
594 787 1
594 964 1
594 1275 1
594 1386 1
594 1758 1
594 1944 1
594 2316 1
594 2523 1
594 2695 1
594 3136 1
595 73 1
595 304 1
595 788 1
595 876 1
595 1276 1
595 1387 1
595 1759 1
595 1945 1
595 2317 1
595 2524 1
595 2696 1
595 3048 1
596 74 1
596 305 1
596 789 1
596 1055 1
596 1277 1
596 1388 1
596 1760 1
596 1946 1
596 2318 1
596 2525 1
596 2697 1
596 2960 1
597 75 1
597 306 1
597 790 1
597 967 1
597 1278 1
597 1389 1
597 1761 1
597 1947 1
597 2319 1
597 2526 1
597 2698 1
597 3139 1
598 76 1
598 307 1
598 791 1
598 879 1
598 1279 1
598 1390 1
598 1762 1
598 1948 1
598 2320 1
598 2527 1
598 2699 1
598 3051 1
599 77 1
599 308 1
599 792 1
599 1058 1
599 1280 1
599 1391 1
599 1763 1
599 1949 1
599 2321 1
599 2528 1
599 2700 1
599 2963 1
600 78 1
600 309 1
600 793 1
600 970 1
600 1281 1
600 1392 1
600 1764 1
600 1950 1
600 2322 1
600 2529 1
600 2701 1
600 3142 1
601 79 1
601 310 1
601 794 1
601 882 1
601 1282 1
601 1393 1
601 1765 1
601 1951 1
601 2323 1
601 2530 1
601 2702 1
601 3054 1
602 80 1
602 311 1
602 795 1
602 1061 1
602 1283 1
602 1394 1
602 1766 1
602 1952 1
602 2324 1
602 2531 1
602 2703 1
602 2966 1
603 81 1
603 312 1
603 796 1
603 973 1
603 1284 1
603 1395 1
603 1767 1
603 1953 1
603 2325 1
603 2532 1
603 2704 1
603 3145 1
604 82 1
604 313 1
604 797 1
604 885 1
604 1285 1
604 1396 1
604 1768 1
604 1954 1
604 2326 1
604 2533 1
604 2705 1
604 3057 1
605 83 1
605 314 1
605 798 1
605 1064 1
605 1286 1
605 1397 1
605 1769 1
605 1955 1
605 2327 1
605 2534 1
605 2706 1
605 2969 1
606 84 1
606 315 1
606 799 1
606 976 1
606 1287 1
606 1398 1
606 1770 1
606 1956 1
606 2328 1
606 2535 1
606 2707 1
606 3148 1
607 85 1
607 316 1
607 800 1
607 888 1
607 1288 1
607 1399 1
607 1771 1
607 1957 1
607 2329 1
607 2536 1
607 2708 1
607 3060 1
608 86 1
608 317 1
608 801 1
608 1067 1
608 1289 1
608 1400 1
608 1772 1
608 1958 1
608 2330 1
608 2537 1
608 2709 1
608 2972 1
609 87 1
609 318 1
609 535 1
609 979 1
609 1290 1
609 1401 1
609 1773 1
609 1959 1
609 2331 1
609 2538 1
609 2710 1
609 3151 1
610 88 1
610 319 1
610 536 1
610 891 1
610 1291 1
610 1402 1
610 1774 1
610 1960 1
610 2332 1
610 2539 1
610 2711 1
610 3063 1
611 89 1
611 320 1
611 537 1
611 803 1
611 1292 1
611 1403 1
611 1775 1
611 1961 1
611 2333 1
611 2540 1
611 2712 1
611 2975 1
612 90 1
612 321 1
612 538 1
612 982 1
612 1293 1
612 1404 1
612 1776 1
612 1962 1
612 2334 1
612 2541 1
612 2713 1
612 3154 1
613 91 1
613 322 1
613 539 1
613 894 1
613 1294 1
613 1405 1
613 1777 1
613 1963 1
613 2335 1
613 2542 1
613 2714 1
613 3066 1
614 92 1
614 323 1
614 540 1
614 806 1
614 1295 1
614 1406 1
614 1778 1
614 1964 1
614 2336 1
614 2543 1
614 2715 1
614 2978 1
615 93 1
615 324 1
615 541 1
615 985 1
615 1296 1
615 1407 1
615 1779 1
615 1965 1
615 2337 1
615 2544 1
615 2716 1
615 3157 1
616 94 1
616 325 1
616 542 1
616 897 1
616 1297 1
616 1408 1
616 1780 1
616 1966 1
616 2338 1
616 2545 1
616 2717 1
616 3069 1
617 95 1
617 326 1
617 543 1
617 809 1
617 1298 1
617 1409 1
617 1781 1
617 1967 1
617 2339 1
617 2546 1
617 2718 1
617 2981 1
618 96 1
618 327 1
618 544 1
618 988 1
618 1299 1
618 1410 1
618 1782 1
618 1968 1
618 2340 1
618 2547 1
618 2719 1
618 3160 1
619 97 1
619 328 1
619 545 1
619 900 1
619 1300 1
619 1411 1
619 1783 1
619 1969 1
619 2341 1
619 2548 1
619 2720 1
619 3072 1
620 98 1
620 329 1
620 546 1
620 812 1
620 1301 1
620 1412 1
620 1784 1
620 1970 1
620 2342 1
620 2549 1
620 2721 1
620 2984 1
621 99 1
621 330 1
621 547 1
621 991 1
621 1302 1
621 1413 1
621 1785 1
621 1971 1
621 2343 1
621 2550 1
621 2722 1
621 3163 1
622 100 1
622 331 1
622 548 1
622 903 1
622 1303 1
622 1414 1
622 1786 1
622 1972 1
622 2344 1
622 2551 1
622 2723 1
622 3075 1
623 101 1
623 332 1
623 549 1
623 815 1
623 1304 1
623 1415 1
623 1787 1
623 1973 1
623 2345 1
623 2552 1
623 2724 1
623 2987 1
624 102 1
624 333 1
624 550 1
624 994 1
624 1305 1
624 1416 1
624 1788 1
624 1974 1
624 2346 1
624 2553 1
624 2725 1
624 3166 1
625 103 1
625 334 1
625 551 1
625 906 1
625 1306 1
625 1417 1
625 1789 1
625 1975 1
625 2347 1
625 2554 1
625 2726 1
625 3078 1
626 104 1
626 335 1
626 552 1
626 818 1
626 1307 1
626 1418 1
626 1790 1
626 1976 1
626 2348 1
626 2555 1
626 2727 1
626 2990 1
627 105 1
627 336 1
627 553 1
627 997 1
627 1308 1
627 1419 1
627 1791 1
627 1977 1
627 2349 1
627 2556 1
627 2728 1
627 3169 1
628 106 1
628 337 1
628 554 1
628 909 1
628 1309 1
628 1420 1
628 1792 1
628 1978 1
628 2350 1
628 2557 1
628 2729 1
628 3081 1
629 107 1
629 338 1
629 555 1
629 821 1
629 1310 1
629 1421 1
629 1793 1
629 1979 1
629 2351 1
629 2558 1
629 2730 1
629 2993 1
630 108 1
630 339 1
630 556 1
630 1000 1
630 1311 1
630 1422 1
630 1794 1
630 1980 1
630 2352 1
630 2559 1
630 2731 1
630 3172 1
631 109 1
631 340 1
631 557 1
631 912 1
631 1312 1
631 1423 1
631 1795 1
631 1981 1
631 2353 1
631 2560 1
631 2732 1
631 3084 1
632 110 1
632 341 1
632 558 1
632 824 1
632 1313 1
632 1424 1
632 1796 1
632 1982 1
632 2354 1
632 2561 1
632 2733 1
632 2996 1
633 111 1
633 342 1
633 559 1
633 1003 1
633 1314 1
633 1425 1
633 1797 1
633 1983 1
633 2355 1
633 2562 1
633 2734 1
633 3175 1
634 112 1
634 343 1
634 560 1
634 915 1
634 1315 1
634 1426 1
634 1798 1
634 1984 1
634 2356 1
634 2563 1
634 2735 1
634 3087 1
635 113 1
635 344 1
635 561 1
635 827 1
635 1316 1
635 1427 1
635 1799 1
635 1985 1
635 2357 1
635 2564 1
635 2736 1
635 2999 1
636 114 1
636 345 1
636 562 1
636 1006 1
636 1317 1
636 1428 1
636 1800 1
636 1986 1
636 2358 1
636 2565 1
636 2737 1
636 3178 1
637 115 1
637 346 1
637 563 1
637 918 1
637 1318 1
637 1429 1
637 1801 1
637 1987 1
637 2359 1
637 2566 1
637 2738 1
637 3090 1
638 116 1
638 347 1
638 564 1
638 830 1
638 1319 1
638 1430 1
638 1802 1
638 1988 1
638 2360 1
638 2567 1
638 2739 1
638 3002 1
639 117 1
639 348 1
639 565 1
639 1009 1
639 1320 1
639 1431 1
639 1803 1
639 1989 1
639 2361 1
639 2568 1
639 2740 1
639 3181 1
640 118 1
640 349 1
640 566 1
640 921 1
640 1321 1
640 1432 1
640 1804 1
640 1990 1
640 2362 1
640 2569 1
640 2741 1
640 3093 1
641 119 1
641 350 1
641 567 1
641 833 1
641 1322 1
641 1433 1
641 1805 1
641 1991 1
641 2363 1
641 2570 1
641 2742 1
641 3005 1
642 120 1
642 351 1
642 568 1
642 1012 1
642 1323 1
642 1434 1
642 1806 1
642 1992 1
642 2364 1
642 2571 1
642 2743 1
642 3184 1
643 121 1
643 352 1
643 569 1
643 924 1
643 1324 1
643 1435 1
643 1807 1
643 1993 1
643 2365 1
643 2572 1
643 2744 1
643 3096 1
644 122 1
644 353 1
644 570 1
644 836 1
644 1325 1
644 1436 1
644 1808 1
644 1994 1
644 2366 1
644 2573 1
644 2745 1
644 3008 1
645 123 1
645 354 1
645 571 1
645 1015 1
645 1326 1
645 1437 1
645 1809 1
645 1995 1
645 2367 1
645 2574 1
645 2746 1
645 3187 1
646 124 1
646 355 1
646 572 1
646 927 1
646 1327 1
646 1438 1
646 1810 1
646 1996 1
646 2368 1
646 2575 1
646 2747 1
646 3099 1
647 125 1
647 356 1
647 573 1
647 839 1
647 1328 1
647 1439 1
647 1811 1
647 1997 1
647 2369 1
647 2576 1
647 2748 1
647 3011 1
648 126 1
648 357 1
648 574 1
648 1018 1
648 1329 1
648 1440 1
648 1812 1
648 1998 1
648 2370 1
648 2577 1
648 2749 1
648 3190 1
649 127 1
649 358 1
649 575 1
649 930 1
649 1330 1
649 1441 1
649 1813 1
649 1999 1
649 2371 1
649 2578 1
649 2750 1
649 3102 1
650 128 1
650 359 1
650 576 1
650 842 1
650 1331 1
650 1442 1
650 1814 1
650 2000 1
650 2372 1
650 2579 1
650 2751 1
650 3014 1
651 129 1
651 360 1
651 577 1
651 1021 1
651 1332 1
651 1443 1
651 1815 1
651 2001 1
651 2373 1
651 2580 1
651 2752 1
651 3193 1
652 130 1
652 361 1
652 578 1
652 933 1
652 1333 1
652 1444 1
652 1816 1
652 2002 1
652 2374 1
652 2581 1
652 2753 1
652 3105 1
653 131 1
653 362 1
653 579 1
653 845 1
653 1334 1
653 1445 1
653 1817 1
653 2003 1
653 2375 1
653 2582 1
653 2754 1
653 3017 1
654 132 1
654 363 1
654 580 1
654 1024 1
654 1335 1
654 1446 1
654 1818 1
654 2004 1
654 2376 1
654 2583 1
654 2755 1
654 3196 1
655 133 1
655 364 1
655 581 1
655 936 1
655 1069 1
655 1447 1
655 1819 1
655 2005 1
655 2377 1
655 2584 1
655 2756 1
655 3108 1
656 134 1
656 365 1
656 582 1
656 848 1
656 1070 1
656 1448 1
656 1820 1
656 2006 1
656 2378 1
656 2585 1
656 2757 1
656 3020 1
657 135 1
657 366 1
657 583 1
657 1027 1
657 1071 1
657 1449 1
657 1821 1
657 2007 1
657 2379 1
657 2586 1
657 2758 1
657 3199 1
658 136 1
658 367 1
658 584 1
658 939 1
658 1072 1
658 1450 1
658 1822 1
658 2008 1
658 2380 1
658 2587 1
658 2759 1
658 3111 1
659 137 1
659 368 1
659 585 1
659 851 1
659 1073 1
659 1451 1
659 1823 1
659 2009 1
659 2381 1
659 2588 1
659 2760 1
659 3023 1
660 138 1
660 369 1
660 586 1
660 1030 1
660 1074 1
660 1452 1
660 1824 1
660 2010 1
660 2382 1
660 2589 1
660 2761 1
660 3202 1
661 139 1
661 370 1
661 587 1
661 942 1
661 1075 1
661 1453 1
661 1825 1
661 2011 1
661 2383 1
661 2590 1
661 2762 1
661 3114 1
662 140 1
662 371 1
662 588 1
662 854 1
662 1076 1
662 1454 1
662 1826 1
662 2012 1
662 2384 1
662 2591 1
662 2763 1
662 3026 1
663 141 1
663 372 1
663 589 1
663 1033 1
663 1077 1
663 1455 1
663 1827 1
663 2013 1
663 2385 1
663 2592 1
663 2764 1
663 2938 1
664 142 1
664 373 1
664 590 1
664 945 1
664 1078 1
664 1456 1
664 1828 1
664 2014 1
664 2386 1
664 2593 1
664 2765 1
664 3117 1
665 143 1
665 374 1
665 591 1
665 857 1
665 1079 1
665 1457 1
665 1829 1
665 2015 1
665 2387 1
665 2594 1
665 2766 1
665 3029 1
666 144 1
666 375 1
666 592 1
666 1036 1
666 1080 1
666 1458 1
666 1830 1
666 2016 1
666 2388 1
666 2595 1
666 2767 1
666 2941 1
667 145 1
667 376 1
667 593 1
667 948 1
667 1081 1
667 1459 1
667 1831 1
667 2017 1
667 2389 1
667 2596 1
667 2768 1
667 3120 1
668 146 1
668 377 1
668 594 1
668 860 1
668 1082 1
668 1460 1
668 1832 1
668 2018 1
668 2390 1
668 2597 1
668 2769 1
668 3032 1
669 147 1
669 378 1
669 595 1
669 1039 1
669 1083 1
669 1461 1
669 1833 1
669 2019 1
669 2391 1
669 2598 1
669 2770 1
669 2944 1
670 148 1
670 379 1
670 596 1
670 951 1
670 1084 1
670 1462 1
670 1834 1
670 2020 1
670 2392 1
670 2599 1
670 2771 1
670 3123 1
671 149 1
671 380 1
671 597 1
671 863 1
671 1085 1
671 1463 1
671 1835 1
671 2021 1
671 2393 1
671 2600 1
671 2772 1
671 3035 1
672 150 1
672 381 1
672 598 1
672 1042 1
672 1086 1
672 1464 1
672 1836 1
672 2022 1
672 2394 1
672 2601 1
672 2773 1
672 2947 1
673 151 1
673 382 1
673 599 1
673 954 1
673 1087 1
673 1465 1
673 1837 1
673 2023 1
673 2395 1
673 2602 1
673 2774 1
673 3126 1
674 152 1
674 383 1
674 600 1
674 866 1
674 1088 1
674 1466 1
674 1838 1
674 2024 1
674 2396 1
674 2603 1
674 2775 1
674 3038 1
675 153 1
675 384 1
675 601 1
675 1045 1
675 1089 1
675 1467 1
675 1839 1
675 2025 1
675 2397 1
675 2604 1
675 2776 1
675 2950 1
676 154 1
676 385 1
676 602 1
676 957 1
676 1090 1
676 1468 1
676 1840 1
676 2026 1
676 2398 1
676 2605 1
676 2777 1
676 3129 1
677 155 1
677 386 1
677 603 1
677 869 1
677 1091 1
677 1469 1
677 1841 1
677 2027 1
677 2399 1
677 2606 1
677 2778 1
677 3041 1
678 156 1
678 387 1
678 604 1
678 1048 1
678 1092 1
678 1470 1
678 1842 1
678 2028 1
678 2400 1
678 2607 1
678 2779 1
678 2953 1
679 157 1
679 388 1
679 605 1
679 960 1
679 1093 1
679 1471 1
679 1843 1
679 2029 1
679 2401 1
679 2608 1
679 2780 1
679 3132 1
680 158 1
680 389 1
680 606 1
680 872 1
680 1094 1
680 1472 1
680 1844 1
680 2030 1
680 2402 1
680 2609 1
680 2781 1
680 3044 1
681 159 1
681 390 1
681 607 1
681 1051 1
681 1095 1
681 1473 1
681 1845 1
681 2031 1
681 2403 1
681 2610 1
681 2782 1
681 2956 1
682 160 1
682 391 1
682 608 1
682 963 1
682 1096 1
682 1474 1
682 1846 1
682 2032 1
682 2137 1
682 2611 1
682 2783 1
682 3135 1
683 161 1
683 392 1
683 609 1
683 875 1
683 1097 1
683 1475 1
683 1847 1
683 2033 1
683 2138 1
683 2612 1
683 2784 1
683 3047 1
684 162 1
684 393 1
684 610 1
684 1054 1
684 1098 1
684 1476 1
684 1848 1
684 2034 1
684 2139 1
684 2613 1
684 2785 1
684 2959 1
685 163 1
685 394 1
685 611 1
685 966 1
685 1099 1
685 1477 1
685 1849 1
685 2035 1
685 2140 1
685 2614 1
685 2786 1
685 3138 1
686 164 1
686 395 1
686 612 1
686 878 1
686 1100 1
686 1478 1
686 1850 1
686 2036 1
686 2141 1
686 2615 1
686 2787 1
686 3050 1
687 165 1
687 396 1
687 613 1
687 1057 1
687 1101 1
687 1479 1
687 1851 1
687 2037 1
687 2142 1
687 2616 1
687 2788 1
687 2962 1
688 166 1
688 397 1
688 614 1
688 969 1
688 1102 1
688 1480 1
688 1852 1
688 2038 1
688 2143 1
688 2617 1
688 2789 1
688 3141 1
689 167 1
689 398 1
689 615 1
689 881 1
689 1103 1
689 1481 1
689 1853 1
689 2039 1
689 2144 1
689 2618 1
689 2790 1
689 3053 1
690 168 1
690 399 1
690 616 1
690 1060 1
690 1104 1
690 1482 1
690 1854 1
690 2040 1
690 2145 1
690 2619 1
690 2791 1
690 2965 1
691 169 1
691 400 1
691 617 1
691 972 1
691 1105 1
691 1483 1
691 1855 1
691 2041 1
691 2146 1
691 2620 1
691 2792 1
691 3144 1
692 170 1
692 401 1
692 618 1
692 884 1
692 1106 1
692 1484 1
692 1856 1
692 2042 1
692 2147 1
692 2621 1
692 2793 1
692 3056 1
693 171 1
693 402 1
693 619 1
693 1063 1
693 1107 1
693 1485 1
693 1857 1
693 2043 1
693 2148 1
693 2622 1
693 2794 1
693 2968 1
694 172 1
694 403 1
694 620 1
694 975 1
694 1108 1
694 1486 1
694 1858 1
694 2044 1
694 2149 1
694 2623 1
694 2795 1
694 3147 1
695 173 1
695 404 1
695 621 1
695 887 1
695 1109 1
695 1487 1
695 1859 1
695 2045 1
695 2150 1
695 2624 1
695 2796 1
695 3059 1
696 174 1
696 405 1
696 622 1
696 1066 1
696 1110 1
696 1488 1
696 1860 1
696 2046 1
696 2151 1
696 2625 1
696 2797 1
696 2971 1
697 175 1
697 406 1
697 623 1
697 978 1
697 1111 1
697 1489 1
697 1861 1
697 2047 1
697 2152 1
697 2626 1
697 2798 1
697 3150 1
698 176 1
698 407 1
698 624 1
698 890 1
698 1112 1
698 1490 1
698 1862 1
698 2048 1
698 2153 1
698 2627 1
698 2799 1
698 3062 1
699 177 1
699 408 1
699 625 1
699 802 1
699 1113 1
699 1491 1
699 1863 1
699 2049 1
699 2154 1
699 2628 1
699 2800 1
699 2974 1
700 178 1
700 409 1
700 626 1
700 981 1
700 1114 1
700 1492 1
700 1864 1
700 2050 1
700 2155 1
700 2629 1
700 2801 1
700 3153 1
701 179 1
701 410 1
701 627 1
701 893 1
701 1115 1
701 1493 1
701 1865 1
701 2051 1
701 2156 1
701 2630 1
701 2802 1
701 3065 1
702 180 1
702 411 1
702 628 1
702 805 1
702 1116 1
702 1494 1
702 1866 1
702 2052 1
702 2157 1
702 2631 1
702 2803 1
702 2977 1
703 181 1
703 412 1
703 629 1
703 984 1
703 1117 1
703 1495 1
703 1867 1
703 2053 1
703 2158 1
703 2632 1
703 2804 1
703 3156 1
704 182 1
704 413 1
704 630 1
704 896 1
704 1118 1
704 1496 1
704 1868 1
704 2054 1
704 2159 1
704 2633 1
704 2805 1
704 3068 1
705 183 1
705 414 1
705 631 1
705 808 1
705 1119 1
705 1497 1
705 1869 1
705 2055 1
705 2160 1
705 2634 1
705 2806 1
705 2980 1
706 184 1
706 415 1
706 632 1
706 987 1
706 1120 1
706 1498 1
706 1603 1
706 2056 1
706 2161 1
706 2635 1
706 2807 1
706 3159 1
707 185 1
707 416 1
707 633 1
707 899 1
707 1121 1
707 1499 1
707 1604 1
707 2057 1
707 2162 1
707 2636 1
707 2808 1
707 3071 1
708 186 1
708 417 1
708 634 1
708 811 1
708 1122 1
708 1500 1
708 1605 1
708 2058 1
708 2163 1
708 2637 1
708 2809 1
708 2983 1
709 187 1
709 418 1
709 635 1
709 990 1
709 1123 1
709 1501 1
709 1606 1
709 2059 1
709 2164 1
709 2638 1
709 2810 1
709 3162 1
710 188 1
710 419 1
710 636 1
710 902 1
710 1124 1
710 1502 1
710 1607 1
710 2060 1
710 2165 1
710 2639 1
710 2811 1
710 3074 1
711 189 1
711 420 1
711 637 1
711 814 1
711 1125 1
711 1503 1
711 1608 1
711 2061 1
711 2166 1
711 2640 1
711 2812 1
711 2986 1
712 190 1
712 421 1
712 638 1
712 993 1
712 1126 1
712 1504 1
712 1609 1
712 2062 1
712 2167 1
712 2641 1
712 2813 1
712 3165 1
713 191 1
713 422 1
713 639 1
713 905 1
713 1127 1
713 1505 1
713 1610 1
713 2063 1
713 2168 1
713 2642 1
713 2814 1
713 3077 1
714 192 1
714 423 1
714 640 1
714 817 1
714 1128 1
714 1506 1
714 1611 1
714 2064 1
714 2169 1
714 2643 1
714 2815 1
714 2989 1
715 193 1
715 424 1
715 641 1
715 996 1
715 1129 1
715 1507 1
715 1612 1
715 2065 1
715 2170 1
715 2644 1
715 2816 1
715 3168 1
716 194 1
716 425 1
716 642 1
716 908 1
716 1130 1
716 1508 1
716 1613 1
716 2066 1
716 2171 1
716 2645 1
716 2817 1
716 3080 1
717 195 1
717 426 1
717 643 1
717 820 1
717 1131 1
717 1509 1
717 1614 1
717 2067 1
717 2172 1
717 2646 1
717 2818 1
717 2992 1
718 196 1
718 427 1
718 644 1
718 999 1
718 1132 1
718 1510 1
718 1615 1
718 2068 1
718 2173 1
718 2647 1
718 2819 1
718 3171 1
719 197 1
719 428 1
719 645 1
719 911 1
719 1133 1
719 1511 1
719 1616 1
719 2069 1
719 2174 1
719 2648 1
719 2820 1
719 3083 1
720 198 1
720 429 1
720 646 1
720 823 1
720 1134 1
720 1512 1
720 1617 1
720 2070 1
720 2175 1
720 2649 1
720 2821 1
720 2995 1
721 199 1
721 430 1
721 647 1
721 1002 1
721 1135 1
721 1513 1
721 1618 1
721 2071 1
721 2176 1
721 2650 1
721 2822 1
721 3174 1
722 200 1
722 431 1
722 648 1
722 914 1
722 1136 1
722 1514 1
722 1619 1
722 2072 1
722 2177 1
722 2651 1
722 2823 1
722 3086 1
723 201 1
723 432 1
723 649 1
723 826 1
723 1137 1
723 1515 1
723 1620 1
723 2073 1
723 2178 1
723 2652 1
723 2824 1
723 2998 1
724 202 1
724 433 1
724 650 1
724 1005 1
724 1138 1
724 1516 1
724 1621 1
724 2074 1
724 2179 1
724 2653 1
724 2825 1
724 3177 1
725 203 1
725 434 1
725 651 1
725 917 1
725 1139 1
725 1517 1
725 1622 1
725 2075 1
725 2180 1
725 2654 1
725 2826 1
725 3089 1
726 204 1
726 435 1
726 652 1
726 829 1
726 1140 1
726 1518 1
726 1623 1
726 2076 1
726 2181 1
726 2655 1
726 2827 1
726 3001 1
727 205 1
727 436 1
727 653 1
727 1008 1
727 1141 1
727 1519 1
727 1624 1
727 2077 1
727 2182 1
727 2656 1
727 2828 1
727 3180 1
728 206 1
728 437 1
728 654 1
728 920 1
728 1142 1
728 1520 1
728 1625 1
728 2078 1
728 2183 1
728 2657 1
728 2829 1
728 3092 1
729 207 1
729 438 1
729 655 1
729 832 1
729 1143 1
729 1521 1
729 1626 1
729 2079 1
729 2184 1
729 2658 1
729 2830 1
729 3004 1
730 208 1
730 439 1
730 656 1
730 1011 1
730 1144 1
730 1522 1
730 1627 1
730 2080 1
730 2185 1
730 2659 1
730 2831 1
730 3183 1
731 209 1
731 440 1
731 657 1
731 923 1
731 1145 1
731 1523 1
731 1628 1
731 2081 1
731 2186 1
731 2660 1
731 2832 1
731 3095 1
732 210 1
732 441 1
732 658 1
732 835 1
732 1146 1
732 1524 1
732 1629 1
732 2082 1
732 2187 1
732 2661 1
732 2833 1
732 3007 1
733 211 1
733 442 1
733 659 1
733 1014 1
733 1147 1
733 1525 1
733 1630 1
733 2083 1
733 2188 1
733 2662 1
733 2834 1
733 3186 1
734 212 1
734 443 1
734 660 1
734 926 1
734 1148 1
734 1526 1
734 1631 1
734 2084 1
734 2189 1
734 2663 1
734 2835 1
734 3098 1
735 213 1
735 444 1
735 661 1
735 838 1
735 1149 1
735 1527 1
735 1632 1
735 2085 1
735 2190 1
735 2664 1
735 2836 1
735 3010 1
736 214 1
736 445 1
736 662 1
736 1017 1
736 1150 1
736 1528 1
736 1633 1
736 2086 1
736 2191 1
736 2665 1
736 2837 1
736 3189 1
737 215 1
737 446 1
737 663 1
737 929 1
737 1151 1
737 1529 1
737 1634 1
737 2087 1
737 2192 1
737 2666 1
737 2838 1
737 3101 1
738 216 1
738 447 1
738 664 1
738 841 1
738 1152 1
738 1530 1
738 1635 1
738 2088 1
738 2193 1
738 2667 1
738 2839 1
738 3013 1
739 217 1
739 448 1
739 665 1
739 1020 1
739 1153 1
739 1531 1
739 1636 1
739 2089 1
739 2194 1
739 2668 1
739 2840 1
739 3192 1
740 218 1
740 449 1
740 666 1
740 932 1
740 1154 1
740 1532 1
740 1637 1
740 2090 1
740 2195 1
740 2669 1
740 2841 1
740 3104 1
741 219 1
741 450 1
741 667 1
741 844 1
741 1155 1
741 1533 1
741 1638 1
741 2091 1
741 2196 1
741 2670 1
741 2842 1
741 3016 1
742 220 1
742 451 1
742 668 1
742 1023 1
742 1156 1
742 1534 1
742 1639 1
742 2092 1
742 2197 1
742 2404 1
742 2843 1
742 3195 1
743 221 1
743 452 1
743 669 1
743 935 1
743 1157 1
743 1535 1
743 1640 1
743 2093 1
743 2198 1
743 2405 1
743 2844 1
743 3107 1
744 222 1
744 453 1
744 670 1
744 847 1
744 1158 1
744 1536 1
744 1641 1
744 2094 1
744 2199 1
744 2406 1
744 2845 1
744 3019 1
745 223 1
745 454 1
745 671 1
745 1026 1
745 1159 1
745 1537 1
745 1642 1
745 2095 1
745 2200 1
745 2407 1
745 2846 1
745 3198 1
746 224 1
746 455 1
746 672 1
746 938 1
746 1160 1
746 1538 1
746 1643 1
746 2096 1
746 2201 1
746 2408 1
746 2847 1
746 3110 1
747 225 1
747 456 1
747 673 1
747 850 1
747 1161 1
747 1539 1
747 1644 1
747 2097 1
747 2202 1
747 2409 1
747 2848 1
747 3022 1
748 226 1
748 457 1
748 674 1
748 1029 1
748 1162 1
748 1540 1
748 1645 1
748 2098 1
748 2203 1
748 2410 1
748 2849 1
748 3201 1
749 227 1
749 458 1
749 675 1
749 941 1
749 1163 1
749 1541 1
749 1646 1
749 2099 1
749 2204 1
749 2411 1
749 2850 1
749 3113 1
750 228 1
750 459 1
750 676 1
750 853 1
750 1164 1
750 1542 1
750 1647 1
750 2100 1
750 2205 1
750 2412 1
750 2851 1
750 3025 1
751 229 1
751 460 1
751 677 1
751 1032 1
751 1165 1
751 1543 1
751 1648 1
751 2101 1
751 2206 1
751 2413 1
751 2852 1
751 3204 1
752 230 1
752 461 1
752 678 1
752 944 1
752 1166 1
752 1544 1
752 1649 1
752 2102 1
752 2207 1
752 2414 1
752 2853 1
752 3116 1
753 231 1
753 462 1
753 679 1
753 856 1
753 1167 1
753 1545 1
753 1650 1
753 2103 1
753 2208 1
753 2415 1
753 2854 1
753 3028 1
754 232 1
754 463 1
754 680 1
754 1035 1
754 1168 1
754 1546 1
754 1651 1
754 2104 1
754 2209 1
754 2416 1
754 2855 1
754 2940 1
755 233 1
755 464 1
755 681 1
755 947 1
755 1169 1
755 1547 1
755 1652 1
755 2105 1
755 2210 1
755 2417 1
755 2856 1
755 3119 1
756 234 1
756 465 1
756 682 1
756 859 1
756 1170 1
756 1548 1
756 1653 1
756 2106 1
756 2211 1
756 2418 1
756 2857 1
756 3031 1
757 235 1
757 466 1
757 683 1
757 1038 1
757 1171 1
757 1549 1
757 1654 1
757 2107 1
757 2212 1
757 2419 1
757 2858 1
757 2943 1
758 236 1
758 467 1
758 684 1
758 950 1
758 1172 1
758 1550 1
758 1655 1
758 2108 1
758 2213 1
758 2420 1
758 2859 1
758 3122 1
759 237 1
759 468 1
759 685 1
759 862 1
759 1173 1
759 1551 1
759 1656 1
759 2109 1
759 2214 1
759 2421 1
759 2860 1
759 3034 1
760 238 1
760 469 1
760 686 1
760 1041 1
760 1174 1
760 1552 1
760 1657 1
760 2110 1
760 2215 1
760 2422 1
760 2861 1
760 2946 1
761 239 1
761 470 1
761 687 1
761 953 1
761 1175 1
761 1553 1
761 1658 1
761 2111 1
761 2216 1
761 2423 1
761 2862 1
761 3125 1
762 240 1
762 471 1
762 688 1
762 865 1
762 1176 1
762 1554 1
762 1659 1
762 2112 1
762 2217 1
762 2424 1
762 2863 1
762 3037 1
763 241 1
763 472 1
763 689 1
763 1044 1
763 1177 1
763 1555 1
763 1660 1
763 2113 1
763 2218 1
763 2425 1
763 2864 1
763 2949 1
764 242 1
764 473 1
764 690 1
764 956 1
764 1178 1
764 1556 1
764 1661 1
764 2114 1
764 2219 1
764 2426 1
764 2865 1
764 3128 1
765 243 1
765 474 1
765 691 1
765 868 1
765 1179 1
765 1557 1
765 1662 1
765 2115 1
765 2220 1
765 2427 1
765 2866 1
765 3040 1
766 244 1
766 475 1
766 692 1
766 1047 1
766 1180 1
766 1558 1
766 1663 1
766 2116 1
766 2221 1
766 2428 1
766 2867 1
766 2952 1
767 245 1
767 476 1
767 693 1
767 959 1
767 1181 1
767 1559 1
767 1664 1
767 2117 1
767 2222 1
767 2429 1
767 2868 1
767 3131 1
768 246 1
768 477 1
768 694 1
768 871 1
768 1182 1
768 1560 1
768 1665 1
768 2118 1
768 2223 1
768 2430 1
768 2869 1
768 3043 1
769 247 1
769 478 1
769 695 1
769 1050 1
769 1183 1
769 1561 1
769 1666 1
769 2119 1
769 2224 1
769 2431 1
769 2870 1
769 2955 1
770 248 1
770 479 1
770 696 1
770 962 1
770 1184 1
770 1562 1
770 1667 1
770 2120 1
770 2225 1
770 2432 1
770 2871 1
770 3134 1
771 249 1
771 480 1
771 697 1
771 874 1
771 1185 1
771 1563 1
771 1668 1
771 2121 1
771 2226 1
771 2433 1
771 2872 1
771 3046 1
772 250 1
772 481 1
772 698 1
772 1053 1
772 1186 1
772 1564 1
772 1669 1
772 2122 1
772 2227 1
772 2434 1
772 2873 1
772 2958 1
773 251 1
773 482 1
773 699 1
773 965 1
773 1187 1
773 1565 1
773 1670 1
773 2123 1
773 2228 1
773 2435 1
773 2874 1
773 3137 1
774 252 1
774 483 1
774 700 1
774 877 1
774 1188 1
774 1566 1
774 1671 1
774 2124 1
774 2229 1
774 2436 1
774 2875 1
774 3049 1
775 253 1
775 484 1
775 701 1
775 1056 1
775 1189 1
775 1567 1
775 1672 1
775 2125 1
775 2230 1
775 2437 1
775 2876 1
775 2961 1
776 254 1
776 485 1
776 702 1
776 968 1
776 1190 1
776 1568 1
776 1673 1
776 2126 1
776 2231 1
776 2438 1
776 2877 1
776 3140 1
777 255 1
777 486 1
777 703 1
777 880 1
777 1191 1
777 1569 1
777 1674 1
777 2127 1
777 2232 1
777 2439 1
777 2878 1
777 3052 1
778 256 1
778 487 1
778 704 1
778 1059 1
778 1192 1
778 1570 1
778 1675 1
778 2128 1
778 2233 1
778 2440 1
778 2879 1
778 2964 1
779 257 1
779 488 1
779 705 1
779 971 1
779 1193 1
779 1571 1
779 1676 1
779 2129 1
779 2234 1
779 2441 1
779 2880 1
779 3143 1
780 258 1
780 489 1
780 706 1
780 883 1
780 1194 1
780 1572 1
780 1677 1
780 2130 1
780 2235 1
780 2442 1
780 2881 1
780 3055 1
781 259 1
781 490 1
781 707 1
781 1062 1
781 1195 1
781 1573 1
781 1678 1
781 2131 1
781 2236 1
781 2443 1
781 2882 1
781 2967 1
782 260 1
782 491 1
782 708 1
782 974 1
782 1196 1
782 1574 1
782 1679 1
782 2132 1
782 2237 1
782 2444 1
782 2883 1
782 3146 1
783 261 1
783 492 1
783 709 1
783 886 1
783 1197 1
783 1575 1
783 1680 1
783 2133 1
783 2238 1
783 2445 1
783 2884 1
783 3058 1
784 262 1
784 493 1
784 710 1
784 1065 1
784 1198 1
784 1576 1
784 1681 1
784 2134 1
784 2239 1
784 2446 1
784 2885 1
784 2970 1
785 263 1
785 494 1
785 711 1
785 977 1
785 1199 1
785 1577 1
785 1682 1
785 2135 1
785 2240 1
785 2447 1
785 2886 1
785 3149 1
786 264 1
786 495 1
786 712 1
786 889 1
786 1200 1
786 1578 1
786 1683 1
786 2136 1
786 2241 1
786 2448 1
786 2887 1
786 3061 1
787 265 1
787 496 1
787 713 1
787 1068 1
787 1201 1
787 1579 1
787 1684 1
787 1870 1
787 2242 1
787 2449 1
787 2888 1
787 2973 1
788 266 1
788 497 1
788 714 1
788 980 1
788 1202 1
788 1580 1
788 1685 1
788 1871 1
788 2243 1
788 2450 1
788 2889 1
788 3152 1
789 267 1
789 498 1
789 715 1
789 892 1
789 1203 1
789 1581 1
789 1686 1
789 1872 1
789 2244 1
789 2451 1
789 2890 1
789 3064 1
790 1 1
790 499 1
790 716 1
790 804 1
790 1204 1
790 1582 1
790 1687 1
790 1873 1
790 2245 1
790 2452 1
790 2891 1
790 2976 1
791 2 1
791 500 1
791 717 1
791 983 1
791 1205 1
791 1583 1
791 1688 1
791 1874 1
791 2246 1
791 2453 1
791 2892 1
791 3155 1
792 3 1
792 501 1
792 718 1
792 895 1
792 1206 1
792 1584 1
792 1689 1
792 1875 1
792 2247 1
792 2454 1
792 2893 1
792 3067 1
793 4 1
793 502 1
793 719 1
793 807 1
793 1207 1
793 1585 1
793 1690 1
793 1876 1
793 2248 1
793 2455 1
793 2894 1
793 2979 1
794 5 1
794 503 1
794 720 1
794 986 1
794 1208 1
794 1586 1
794 1691 1
794 1877 1
794 2249 1
794 2456 1
794 2895 1
794 3158 1
795 6 1
795 504 1
795 721 1
795 898 1
795 1209 1
795 1587 1
795 1692 1
795 1878 1
795 2250 1
795 2457 1
795 2896 1
795 3070 1
796 7 1
796 505 1
796 722 1
796 810 1
796 1210 1
796 1588 1
796 1693 1
796 1879 1
796 2251 1
796 2458 1
796 2897 1
796 2982 1
797 8 1
797 506 1
797 723 1
797 989 1
797 1211 1
797 1589 1
797 1694 1
797 1880 1
797 2252 1
797 2459 1
797 2898 1
797 3161 1
798 9 1
798 507 1
798 724 1
798 901 1
798 1212 1
798 1590 1
798 1695 1
798 1881 1
798 2253 1
798 2460 1
798 2899 1
798 3073 1
799 10 1
799 508 1
799 725 1
799 813 1
799 1213 1
799 1591 1
799 1696 1
799 1882 1
799 2254 1
799 2461 1
799 2900 1
799 2985 1
800 11 1
800 509 1
800 726 1
800 992 1
800 1214 1
800 1592 1
800 1697 1
800 1883 1
800 2255 1
800 2462 1
800 2901 1
800 3164 1
801 12 1
801 510 1
801 727 1
801 904 1
801 1215 1
801 1593 1
801 1698 1
801 1884 1
801 2256 1
801 2463 1
801 2902 1
801 3076 1
